\ SCIP STATISTICS
\   Problem name     : dual_source_rotary_cluster_shared_pm
\   Variables        : 633 (526 binary, 0 integer, 0 implicit integer, 107 continuous)
\   Constraints      : 1406
Minimize
 Obj: +1 c_max
Subject to
 full_pair_assign_once_2: +1 assign_full_2_1_1 +1 assign_full_2_1_2 +1 assign_full_2_1_3 +1 assign_full_2_1_4
  +1 assign_full_2_1_5 +1 assign_full_2_1_6 +1 assign_full_2_1_7 +1 assign_full_2_1_8 +1 assign_full_2_1_9
  +1 assign_full_2_1_10 +1 assign_full_2_2_1 +1 assign_full_2_2_2 +1 assign_full_2_2_3 +1 assign_full_2_2_4
  +1 assign_full_2_2_5 +1 assign_full_2_2_6 +1 assign_full_2_2_7 +1 assign_full_2_2_8 +1 assign_full_2_2_9
  +1 assign_full_2_2_10 = +1
 full_pair_assign_once_4: +1 assign_full_4_1_1 +1 assign_full_4_1_2 +1 assign_full_4_1_3 +1 assign_full_4_1_4
  +1 assign_full_4_1_5 +1 assign_full_4_1_6 +1 assign_full_4_1_7 +1 assign_full_4_1_8 +1 assign_full_4_1_9
  +1 assign_full_4_1_10 +1 assign_full_4_2_1 +1 assign_full_4_2_2 +1 assign_full_4_2_3 +1 assign_full_4_2_4
  +1 assign_full_4_2_5 +1 assign_full_4_2_6 +1 assign_full_4_2_7 +1 assign_full_4_2_8 +1 assign_full_4_2_9
  +1 assign_full_4_2_10 = +1
 full_pair_assign_once_6: +1 assign_full_6_1_1 +1 assign_full_6_1_2 +1 assign_full_6_1_3 +1 assign_full_6_1_4
  +1 assign_full_6_1_5 +1 assign_full_6_1_6 +1 assign_full_6_1_7 +1 assign_full_6_1_8 +1 assign_full_6_1_9
  +1 assign_full_6_1_10 +1 assign_full_6_2_1 +1 assign_full_6_2_2 +1 assign_full_6_2_3 +1 assign_full_6_2_4
  +1 assign_full_6_2_5 +1 assign_full_6_2_6 +1 assign_full_6_2_7 +1 assign_full_6_2_8 +1 assign_full_6_2_9
  +1 assign_full_6_2_10 = +1
 full_pair_assign_once_8: +1 assign_full_8_1_1 +1 assign_full_8_1_2 +1 assign_full_8_1_3 +1 assign_full_8_1_4
  +1 assign_full_8_1_5 +1 assign_full_8_1_6 +1 assign_full_8_1_7 +1 assign_full_8_1_8 +1 assign_full_8_1_9
  +1 assign_full_8_1_10 +1 assign_full_8_2_1 +1 assign_full_8_2_2 +1 assign_full_8_2_3 +1 assign_full_8_2_4
  +1 assign_full_8_2_5 +1 assign_full_8_2_6 +1 assign_full_8_2_7 +1 assign_full_8_2_8 +1 assign_full_8_2_9
  +1 assign_full_8_2_10 = +1
 full_pair_assign_once_10: +1 assign_full_10_1_1 +1 assign_full_10_1_2 +1 assign_full_10_1_3 +1 assign_full_10_1_4
  +1 assign_full_10_1_5 +1 assign_full_10_1_6 +1 assign_full_10_1_7 +1 assign_full_10_1_8 +1 assign_full_10_1_9
  +1 assign_full_10_1_10 +1 assign_full_10_2_1 +1 assign_full_10_2_2 +1 assign_full_10_2_3 +1 assign_full_10_2_4
  +1 assign_full_10_2_5 +1 assign_full_10_2_6 +1 assign_full_10_2_7 +1 assign_full_10_2_8 +1 assign_full_10_2_9
  +1 assign_full_10_2_10 = +1
 full_pair_assign_once_12: +1 assign_full_12_1_1 +1 assign_full_12_1_2 +1 assign_full_12_1_3 +1 assign_full_12_1_4
  +1 assign_full_12_1_5 +1 assign_full_12_1_6 +1 assign_full_12_1_7 +1 assign_full_12_1_8 +1 assign_full_12_1_9
  +1 assign_full_12_1_10 +1 assign_full_12_2_1 +1 assign_full_12_2_2 +1 assign_full_12_2_3 +1 assign_full_12_2_4
  +1 assign_full_12_2_5 +1 assign_full_12_2_6 +1 assign_full_12_2_7 +1 assign_full_12_2_8 +1 assign_full_12_2_9
  +1 assign_full_12_2_10 = +1
 full_pair_assign_once_14: +1 assign_full_14_1_1 +1 assign_full_14_1_2 +1 assign_full_14_1_3 +1 assign_full_14_1_4
  +1 assign_full_14_1_5 +1 assign_full_14_1_6 +1 assign_full_14_1_7 +1 assign_full_14_1_8 +1 assign_full_14_1_9
  +1 assign_full_14_1_10 +1 assign_full_14_2_1 +1 assign_full_14_2_2 +1 assign_full_14_2_3 +1 assign_full_14_2_4
  +1 assign_full_14_2_5 +1 assign_full_14_2_6 +1 assign_full_14_2_7 +1 assign_full_14_2_8 +1 assign_full_14_2_9
  +1 assign_full_14_2_10 = +1
 full_pair_assign_once_16: +1 assign_full_16_1_1 +1 assign_full_16_1_2 +1 assign_full_16_1_3 +1 assign_full_16_1_4
  +1 assign_full_16_1_5 +1 assign_full_16_1_6 +1 assign_full_16_1_7 +1 assign_full_16_1_8 +1 assign_full_16_1_9
  +1 assign_full_16_1_10 +1 assign_full_16_2_1 +1 assign_full_16_2_2 +1 assign_full_16_2_3 +1 assign_full_16_2_4
  +1 assign_full_16_2_5 +1 assign_full_16_2_6 +1 assign_full_16_2_7 +1 assign_full_16_2_8 +1 assign_full_16_2_9
  +1 assign_full_16_2_10 = +1
 full_pair_assign_once_18: +1 assign_full_18_1_1 +1 assign_full_18_1_2 +1 assign_full_18_1_3 +1 assign_full_18_1_4
  +1 assign_full_18_1_5 +1 assign_full_18_1_6 +1 assign_full_18_1_7 +1 assign_full_18_1_8 +1 assign_full_18_1_9
  +1 assign_full_18_1_10 +1 assign_full_18_2_1 +1 assign_full_18_2_2 +1 assign_full_18_2_3 +1 assign_full_18_2_4
  +1 assign_full_18_2_5 +1 assign_full_18_2_6 +1 assign_full_18_2_7 +1 assign_full_18_2_8 +1 assign_full_18_2_9
  +1 assign_full_18_2_10 = +1
 full_pair_assign_once_20: +1 assign_full_20_1_1 +1 assign_full_20_1_2 +1 assign_full_20_1_3 +1 assign_full_20_1_4
  +1 assign_full_20_1_5 +1 assign_full_20_1_6 +1 assign_full_20_1_7 +1 assign_full_20_1_8 +1 assign_full_20_1_9
  +1 assign_full_20_1_10 +1 assign_full_20_2_1 +1 assign_full_20_2_2 +1 assign_full_20_2_3 +1 assign_full_20_2_4
  +1 assign_full_20_2_5 +1 assign_full_20_2_6 +1 assign_full_20_2_7 +1 assign_full_20_2_8 +1 assign_full_20_2_9
  +1 assign_full_20_2_10 = +1
 mix_pair_assign_once_1: +1 assign_mix_1_1_1 +1 assign_mix_1_1_2 +1 assign_mix_1_1_3 +1 assign_mix_1_1_4
  +1 assign_mix_1_1_5 +1 assign_mix_1_1_6 +1 assign_mix_1_1_7 +1 assign_mix_1_1_8 +1 assign_mix_1_1_9
  +1 assign_mix_1_1_10 +1 assign_mix_1_2_1 +1 assign_mix_1_2_2 +1 assign_mix_1_2_3 +1 assign_mix_1_2_4
  +1 assign_mix_1_2_5 +1 assign_mix_1_2_6 +1 assign_mix_1_2_7 +1 assign_mix_1_2_8 +1 assign_mix_1_2_9
  +1 assign_mix_1_2_10 = +1
 mix_pair_assign_once_3: +1 assign_mix_3_1_1 +1 assign_mix_3_1_2 +1 assign_mix_3_1_3 +1 assign_mix_3_1_4
  +1 assign_mix_3_1_5 +1 assign_mix_3_1_6 +1 assign_mix_3_1_7 +1 assign_mix_3_1_8 +1 assign_mix_3_1_9
  +1 assign_mix_3_1_10 +1 assign_mix_3_2_1 +1 assign_mix_3_2_2 +1 assign_mix_3_2_3 +1 assign_mix_3_2_4
  +1 assign_mix_3_2_5 +1 assign_mix_3_2_6 +1 assign_mix_3_2_7 +1 assign_mix_3_2_8 +1 assign_mix_3_2_9
  +1 assign_mix_3_2_10 = +1
 mix_pair_assign_once_5: +1 assign_mix_5_1_1 +1 assign_mix_5_1_2 +1 assign_mix_5_1_3 +1 assign_mix_5_1_4
  +1 assign_mix_5_1_5 +1 assign_mix_5_1_6 +1 assign_mix_5_1_7 +1 assign_mix_5_1_8 +1 assign_mix_5_1_9
  +1 assign_mix_5_1_10 +1 assign_mix_5_2_1 +1 assign_mix_5_2_2 +1 assign_mix_5_2_3 +1 assign_mix_5_2_4
  +1 assign_mix_5_2_5 +1 assign_mix_5_2_6 +1 assign_mix_5_2_7 +1 assign_mix_5_2_8 +1 assign_mix_5_2_9
  +1 assign_mix_5_2_10 = +1
 mix_pair_assign_once_7: +1 assign_mix_7_1_1 +1 assign_mix_7_1_2 +1 assign_mix_7_1_3 +1 assign_mix_7_1_4
  +1 assign_mix_7_1_5 +1 assign_mix_7_1_6 +1 assign_mix_7_1_7 +1 assign_mix_7_1_8 +1 assign_mix_7_1_9
  +1 assign_mix_7_1_10 +1 assign_mix_7_2_1 +1 assign_mix_7_2_2 +1 assign_mix_7_2_3 +1 assign_mix_7_2_4
  +1 assign_mix_7_2_5 +1 assign_mix_7_2_6 +1 assign_mix_7_2_7 +1 assign_mix_7_2_8 +1 assign_mix_7_2_9
  +1 assign_mix_7_2_10 = +1
 mix_pair_assign_once_9: +1 assign_mix_9_1_1 +1 assign_mix_9_1_2 +1 assign_mix_9_1_3 +1 assign_mix_9_1_4
  +1 assign_mix_9_1_5 +1 assign_mix_9_1_6 +1 assign_mix_9_1_7 +1 assign_mix_9_1_8 +1 assign_mix_9_1_9
  +1 assign_mix_9_1_10 +1 assign_mix_9_2_1 +1 assign_mix_9_2_2 +1 assign_mix_9_2_3 +1 assign_mix_9_2_4
  +1 assign_mix_9_2_5 +1 assign_mix_9_2_6 +1 assign_mix_9_2_7 +1 assign_mix_9_2_8 +1 assign_mix_9_2_9
  +1 assign_mix_9_2_10 = +1
 mix_pair_assign_once_11: +1 assign_mix_11_1_1 +1 assign_mix_11_1_2 +1 assign_mix_11_1_3 +1 assign_mix_11_1_4
  +1 assign_mix_11_1_5 +1 assign_mix_11_1_6 +1 assign_mix_11_1_7 +1 assign_mix_11_1_8 +1 assign_mix_11_1_9
  +1 assign_mix_11_1_10 +1 assign_mix_11_2_1 +1 assign_mix_11_2_2 +1 assign_mix_11_2_3 +1 assign_mix_11_2_4
  +1 assign_mix_11_2_5 +1 assign_mix_11_2_6 +1 assign_mix_11_2_7 +1 assign_mix_11_2_8 +1 assign_mix_11_2_9
  +1 assign_mix_11_2_10 = +1
 mix_pair_assign_once_13: +1 assign_mix_13_1_1 +1 assign_mix_13_1_2 +1 assign_mix_13_1_3 +1 assign_mix_13_1_4
  +1 assign_mix_13_1_5 +1 assign_mix_13_1_6 +1 assign_mix_13_1_7 +1 assign_mix_13_1_8 +1 assign_mix_13_1_9
  +1 assign_mix_13_1_10 +1 assign_mix_13_2_1 +1 assign_mix_13_2_2 +1 assign_mix_13_2_3 +1 assign_mix_13_2_4
  +1 assign_mix_13_2_5 +1 assign_mix_13_2_6 +1 assign_mix_13_2_7 +1 assign_mix_13_2_8 +1 assign_mix_13_2_9
  +1 assign_mix_13_2_10 = +1
 mix_pair_assign_once_15: +1 assign_mix_15_1_1 +1 assign_mix_15_1_2 +1 assign_mix_15_1_3 +1 assign_mix_15_1_4
  +1 assign_mix_15_1_5 +1 assign_mix_15_1_6 +1 assign_mix_15_1_7 +1 assign_mix_15_1_8 +1 assign_mix_15_1_9
  +1 assign_mix_15_1_10 +1 assign_mix_15_2_1 +1 assign_mix_15_2_2 +1 assign_mix_15_2_3 +1 assign_mix_15_2_4
  +1 assign_mix_15_2_5 +1 assign_mix_15_2_6 +1 assign_mix_15_2_7 +1 assign_mix_15_2_8 +1 assign_mix_15_2_9
  +1 assign_mix_15_2_10 = +1
 mix_pair_assign_once_17: +1 assign_mix_17_1_1 +1 assign_mix_17_1_2 +1 assign_mix_17_1_3 +1 assign_mix_17_1_4
  +1 assign_mix_17_1_5 +1 assign_mix_17_1_6 +1 assign_mix_17_1_7 +1 assign_mix_17_1_8 +1 assign_mix_17_1_9
  +1 assign_mix_17_1_10 +1 assign_mix_17_2_1 +1 assign_mix_17_2_2 +1 assign_mix_17_2_3 +1 assign_mix_17_2_4
  +1 assign_mix_17_2_5 +1 assign_mix_17_2_6 +1 assign_mix_17_2_7 +1 assign_mix_17_2_8 +1 assign_mix_17_2_9
  +1 assign_mix_17_2_10 = +1
 mix_pair_assign_once_19: +1 assign_mix_19_1_1 +1 assign_mix_19_1_2 +1 assign_mix_19_1_3 +1 assign_mix_19_1_4
  +1 assign_mix_19_1_5 +1 assign_mix_19_1_6 +1 assign_mix_19_1_7 +1 assign_mix_19_1_8 +1 assign_mix_19_1_9
  +1 assign_mix_19_1_10 +1 assign_mix_19_2_1 +1 assign_mix_19_2_2 +1 assign_mix_19_2_3 +1 assign_mix_19_2_4
  +1 assign_mix_19_2_5 +1 assign_mix_19_2_6 +1 assign_mix_19_2_7 +1 assign_mix_19_2_8 +1 assign_mix_19_2_9
  +1 assign_mix_19_2_10 = +1
 full_slot_capacity_1_1: +1 assign_full_2_1_1 +1 assign_full_4_1_1 +1 assign_full_6_1_1 +1 assign_full_8_1_1
  +1 assign_full_10_1_1 +1 assign_full_12_1_1 +1 assign_full_14_1_1 +1 assign_full_16_1_1 +1 assign_full_18_1_1
  +1 assign_full_20_1_1 +1 full_pec_pairs_1_1 -2 full_slot_used_1_1 = +0
 full_slot_has_product_1_1: +1 full_slot_used_1_1 -1 assign_full_2_1_1 -1 assign_full_4_1_1 -1 assign_full_6_1_1
  -1 assign_full_8_1_1 -1 assign_full_10_1_1 -1 assign_full_12_1_1 -1 assign_full_14_1_1 -1 assign_full_16_1_1
  -1 assign_full_18_1_1 -1 assign_full_20_1_1 <= +0
 full_slot_prefix_1_1: +1 full_slot_used_1_1 -1 full_slot_used_1_2 >= +0
 full_after_mix_monotone_1_1: +1 full_after_mix_1_1 -1 full_after_mix_1_2 <= +0
 full_slot_capacity_1_2: +1 assign_full_2_1_2 +1 assign_full_4_1_2 +1 assign_full_6_1_2 +1 assign_full_8_1_2
  +1 assign_full_10_1_2 +1 assign_full_12_1_2 +1 assign_full_14_1_2 +1 assign_full_16_1_2 +1 assign_full_18_1_2
  +1 assign_full_20_1_2 +1 full_pec_pairs_1_2 -2 full_slot_used_1_2 = +0
 full_slot_has_product_1_2: +1 full_slot_used_1_2 -1 assign_full_2_1_2 -1 assign_full_4_1_2 -1 assign_full_6_1_2
  -1 assign_full_8_1_2 -1 assign_full_10_1_2 -1 assign_full_12_1_2 -1 assign_full_14_1_2 -1 assign_full_16_1_2
  -1 assign_full_18_1_2 -1 assign_full_20_1_2 <= +0
 full_slot_prefix_1_2: +1 full_slot_used_1_2 -1 full_slot_used_1_3 >= +0
 full_after_mix_monotone_1_2: +1 full_after_mix_1_2 -1 full_after_mix_1_3 <= +0
 full_slot_capacity_1_3: +1 assign_full_2_1_3 +1 assign_full_4_1_3 +1 assign_full_6_1_3 +1 assign_full_8_1_3
  +1 assign_full_10_1_3 +1 assign_full_12_1_3 +1 assign_full_14_1_3 +1 assign_full_16_1_3 +1 assign_full_18_1_3
  +1 assign_full_20_1_3 +1 full_pec_pairs_1_3 -2 full_slot_used_1_3 = +0
 full_slot_has_product_1_3: +1 full_slot_used_1_3 -1 assign_full_2_1_3 -1 assign_full_4_1_3 -1 assign_full_6_1_3
  -1 assign_full_8_1_3 -1 assign_full_10_1_3 -1 assign_full_12_1_3 -1 assign_full_14_1_3 -1 assign_full_16_1_3
  -1 assign_full_18_1_3 -1 assign_full_20_1_3 <= +0
 full_slot_prefix_1_3: +1 full_slot_used_1_3 -1 full_slot_used_1_4 >= +0
 full_after_mix_monotone_1_3: +1 full_after_mix_1_3 -1 full_after_mix_1_4 <= +0
 full_slot_capacity_1_4: +1 assign_full_2_1_4 +1 assign_full_4_1_4 +1 assign_full_6_1_4 +1 assign_full_8_1_4
  +1 assign_full_10_1_4 +1 assign_full_12_1_4 +1 assign_full_14_1_4 +1 assign_full_16_1_4 +1 assign_full_18_1_4
  +1 assign_full_20_1_4 +1 full_pec_pairs_1_4 -2 full_slot_used_1_4 = +0
 full_slot_has_product_1_4: +1 full_slot_used_1_4 -1 assign_full_2_1_4 -1 assign_full_4_1_4 -1 assign_full_6_1_4
  -1 assign_full_8_1_4 -1 assign_full_10_1_4 -1 assign_full_12_1_4 -1 assign_full_14_1_4 -1 assign_full_16_1_4
  -1 assign_full_18_1_4 -1 assign_full_20_1_4 <= +0
 full_slot_prefix_1_4: +1 full_slot_used_1_4 -1 full_slot_used_1_5 >= +0
 full_after_mix_monotone_1_4: +1 full_after_mix_1_4 -1 full_after_mix_1_5 <= +0
 full_slot_capacity_1_5: +1 assign_full_2_1_5 +1 assign_full_4_1_5 +1 assign_full_6_1_5 +1 assign_full_8_1_5
  +1 assign_full_10_1_5 +1 assign_full_12_1_5 +1 assign_full_14_1_5 +1 assign_full_16_1_5 +1 assign_full_18_1_5
  +1 assign_full_20_1_5 +1 full_pec_pairs_1_5 -2 full_slot_used_1_5 = +0
 full_slot_has_product_1_5: +1 full_slot_used_1_5 -1 assign_full_2_1_5 -1 assign_full_4_1_5 -1 assign_full_6_1_5
  -1 assign_full_8_1_5 -1 assign_full_10_1_5 -1 assign_full_12_1_5 -1 assign_full_14_1_5 -1 assign_full_16_1_5
  -1 assign_full_18_1_5 -1 assign_full_20_1_5 <= +0
 full_slot_prefix_1_5: +1 full_slot_used_1_5 -1 full_slot_used_1_6 >= +0
 full_after_mix_monotone_1_5: +1 full_after_mix_1_5 -1 full_after_mix_1_6 <= +0
 full_slot_capacity_1_6: +1 assign_full_2_1_6 +1 assign_full_4_1_6 +1 assign_full_6_1_6 +1 assign_full_8_1_6
  +1 assign_full_10_1_6 +1 assign_full_12_1_6 +1 assign_full_14_1_6 +1 assign_full_16_1_6 +1 assign_full_18_1_6
  +1 assign_full_20_1_6 +1 full_pec_pairs_1_6 -2 full_slot_used_1_6 = +0
 full_slot_has_product_1_6: +1 full_slot_used_1_6 -1 assign_full_2_1_6 -1 assign_full_4_1_6 -1 assign_full_6_1_6
  -1 assign_full_8_1_6 -1 assign_full_10_1_6 -1 assign_full_12_1_6 -1 assign_full_14_1_6 -1 assign_full_16_1_6
  -1 assign_full_18_1_6 -1 assign_full_20_1_6 <= +0
 full_slot_prefix_1_6: +1 full_slot_used_1_6 -1 full_slot_used_1_7 >= +0
 full_after_mix_monotone_1_6: +1 full_after_mix_1_6 -1 full_after_mix_1_7 <= +0
 full_slot_capacity_1_7: +1 assign_full_2_1_7 +1 assign_full_4_1_7 +1 assign_full_6_1_7 +1 assign_full_8_1_7
  +1 assign_full_10_1_7 +1 assign_full_12_1_7 +1 assign_full_14_1_7 +1 assign_full_16_1_7 +1 assign_full_18_1_7
  +1 assign_full_20_1_7 +1 full_pec_pairs_1_7 -2 full_slot_used_1_7 = +0
 full_slot_has_product_1_7: +1 full_slot_used_1_7 -1 assign_full_2_1_7 -1 assign_full_4_1_7 -1 assign_full_6_1_7
  -1 assign_full_8_1_7 -1 assign_full_10_1_7 -1 assign_full_12_1_7 -1 assign_full_14_1_7 -1 assign_full_16_1_7
  -1 assign_full_18_1_7 -1 assign_full_20_1_7 <= +0
 full_slot_prefix_1_7: +1 full_slot_used_1_7 -1 full_slot_used_1_8 >= +0
 full_after_mix_monotone_1_7: +1 full_after_mix_1_7 -1 full_after_mix_1_8 <= +0
 full_slot_capacity_1_8: +1 assign_full_2_1_8 +1 assign_full_4_1_8 +1 assign_full_6_1_8 +1 assign_full_8_1_8
  +1 assign_full_10_1_8 +1 assign_full_12_1_8 +1 assign_full_14_1_8 +1 assign_full_16_1_8 +1 assign_full_18_1_8
  +1 assign_full_20_1_8 +1 full_pec_pairs_1_8 -2 full_slot_used_1_8 = +0
 full_slot_has_product_1_8: +1 full_slot_used_1_8 -1 assign_full_2_1_8 -1 assign_full_4_1_8 -1 assign_full_6_1_8
  -1 assign_full_8_1_8 -1 assign_full_10_1_8 -1 assign_full_12_1_8 -1 assign_full_14_1_8 -1 assign_full_16_1_8
  -1 assign_full_18_1_8 -1 assign_full_20_1_8 <= +0
 full_slot_prefix_1_8: +1 full_slot_used_1_8 -1 full_slot_used_1_9 >= +0
 full_after_mix_monotone_1_8: +1 full_after_mix_1_8 -1 full_after_mix_1_9 <= +0
 full_slot_capacity_1_9: +1 assign_full_2_1_9 +1 assign_full_4_1_9 +1 assign_full_6_1_9 +1 assign_full_8_1_9
  +1 assign_full_10_1_9 +1 assign_full_12_1_9 +1 assign_full_14_1_9 +1 assign_full_16_1_9 +1 assign_full_18_1_9
  +1 assign_full_20_1_9 +1 full_pec_pairs_1_9 -2 full_slot_used_1_9 = +0
 full_slot_has_product_1_9: +1 full_slot_used_1_9 -1 assign_full_2_1_9 -1 assign_full_4_1_9 -1 assign_full_6_1_9
  -1 assign_full_8_1_9 -1 assign_full_10_1_9 -1 assign_full_12_1_9 -1 assign_full_14_1_9 -1 assign_full_16_1_9
  -1 assign_full_18_1_9 -1 assign_full_20_1_9 <= +0
 full_slot_prefix_1_9: +1 full_slot_used_1_9 -1 full_slot_used_1_10 >= +0
 full_after_mix_monotone_1_9: +1 full_after_mix_1_9 -1 full_after_mix_1_10 <= +0
 full_slot_capacity_1_10: +1 assign_full_2_1_10 +1 assign_full_4_1_10 +1 assign_full_6_1_10 +1 assign_full_8_1_10
  +1 assign_full_10_1_10 +1 assign_full_12_1_10 +1 assign_full_14_1_10 +1 assign_full_16_1_10 +1 assign_full_18_1_10
  +1 assign_full_20_1_10 +1 full_pec_pairs_1_10 -2 full_slot_used_1_10 = +0
 full_slot_has_product_1_10: +1 full_slot_used_1_10 -1 assign_full_2_1_10 -1 assign_full_4_1_10 -1 assign_full_6_1_10
  -1 assign_full_8_1_10 -1 assign_full_10_1_10 -1 assign_full_12_1_10 -1 assign_full_14_1_10 -1 assign_full_16_1_10
  -1 assign_full_18_1_10 -1 assign_full_20_1_10 <= +0
 mix_pos_capacity_1_1: +1 mix_pos_used_1_1 -1 assign_mix_1_1_1 -1 assign_mix_3_1_1 -1 assign_mix_5_1_1
  -1 assign_mix_7_1_1 -1 assign_mix_9_1_1 -1 assign_mix_11_1_1 -1 assign_mix_13_1_1 -1 assign_mix_15_1_1
  -1 assign_mix_17_1_1 -1 assign_mix_19_1_1 = +0
 mix_pos_prefix_1_1: +1 mix_pos_used_1_1 -1 mix_pos_used_1_2 >= +0
 mix_pos_capacity_1_2: +1 mix_pos_used_1_2 -1 assign_mix_1_1_2 -1 assign_mix_3_1_2 -1 assign_mix_5_1_2
  -1 assign_mix_7_1_2 -1 assign_mix_9_1_2 -1 assign_mix_11_1_2 -1 assign_mix_13_1_2 -1 assign_mix_15_1_2
  -1 assign_mix_17_1_2 -1 assign_mix_19_1_2 = +0
 mix_pos_prefix_1_2: +1 mix_pos_used_1_2 -1 mix_pos_used_1_3 >= +0
 mix_pos_capacity_1_3: +1 mix_pos_used_1_3 -1 assign_mix_1_1_3 -1 assign_mix_3_1_3 -1 assign_mix_5_1_3
  -1 assign_mix_7_1_3 -1 assign_mix_9_1_3 -1 assign_mix_11_1_3 -1 assign_mix_13_1_3 -1 assign_mix_15_1_3
  -1 assign_mix_17_1_3 -1 assign_mix_19_1_3 = +0
 mix_pos_prefix_1_3: +1 mix_pos_used_1_3 -1 mix_pos_used_1_4 >= +0
 mix_pos_capacity_1_4: +1 mix_pos_used_1_4 -1 assign_mix_1_1_4 -1 assign_mix_3_1_4 -1 assign_mix_5_1_4
  -1 assign_mix_7_1_4 -1 assign_mix_9_1_4 -1 assign_mix_11_1_4 -1 assign_mix_13_1_4 -1 assign_mix_15_1_4
  -1 assign_mix_17_1_4 -1 assign_mix_19_1_4 = +0
 mix_pos_prefix_1_4: +1 mix_pos_used_1_4 -1 mix_pos_used_1_5 >= +0
 mix_pos_capacity_1_5: +1 mix_pos_used_1_5 -1 assign_mix_1_1_5 -1 assign_mix_3_1_5 -1 assign_mix_5_1_5
  -1 assign_mix_7_1_5 -1 assign_mix_9_1_5 -1 assign_mix_11_1_5 -1 assign_mix_13_1_5 -1 assign_mix_15_1_5
  -1 assign_mix_17_1_5 -1 assign_mix_19_1_5 = +0
 mix_pos_prefix_1_5: +1 mix_pos_used_1_5 -1 mix_pos_used_1_6 >= +0
 mix_pos_capacity_1_6: +1 mix_pos_used_1_6 -1 assign_mix_1_1_6 -1 assign_mix_3_1_6 -1 assign_mix_5_1_6
  -1 assign_mix_7_1_6 -1 assign_mix_9_1_6 -1 assign_mix_11_1_6 -1 assign_mix_13_1_6 -1 assign_mix_15_1_6
  -1 assign_mix_17_1_6 -1 assign_mix_19_1_6 = +0
 mix_pos_prefix_1_6: +1 mix_pos_used_1_6 -1 mix_pos_used_1_7 >= +0
 mix_pos_capacity_1_7: +1 mix_pos_used_1_7 -1 assign_mix_1_1_7 -1 assign_mix_3_1_7 -1 assign_mix_5_1_7
  -1 assign_mix_7_1_7 -1 assign_mix_9_1_7 -1 assign_mix_11_1_7 -1 assign_mix_13_1_7 -1 assign_mix_15_1_7
  -1 assign_mix_17_1_7 -1 assign_mix_19_1_7 = +0
 mix_pos_prefix_1_7: +1 mix_pos_used_1_7 -1 mix_pos_used_1_8 >= +0
 mix_pos_capacity_1_8: +1 mix_pos_used_1_8 -1 assign_mix_1_1_8 -1 assign_mix_3_1_8 -1 assign_mix_5_1_8
  -1 assign_mix_7_1_8 -1 assign_mix_9_1_8 -1 assign_mix_11_1_8 -1 assign_mix_13_1_8 -1 assign_mix_15_1_8
  -1 assign_mix_17_1_8 -1 assign_mix_19_1_8 = +0
 mix_pos_prefix_1_8: +1 mix_pos_used_1_8 -1 mix_pos_used_1_9 >= +0
 mix_pos_capacity_1_9: +1 mix_pos_used_1_9 -1 assign_mix_1_1_9 -1 assign_mix_3_1_9 -1 assign_mix_5_1_9
  -1 assign_mix_7_1_9 -1 assign_mix_9_1_9 -1 assign_mix_11_1_9 -1 assign_mix_13_1_9 -1 assign_mix_15_1_9
  -1 assign_mix_17_1_9 -1 assign_mix_19_1_9 = +0
 mix_pos_prefix_1_9: +1 mix_pos_used_1_9 -1 mix_pos_used_1_10 >= +0
 mix_pos_capacity_1_10: +1 mix_pos_used_1_10 -1 assign_mix_1_1_10 -1 assign_mix_3_1_10 -1 assign_mix_5_1_10
  -1 assign_mix_7_1_10 -1 assign_mix_9_1_10 -1 assign_mix_11_1_10 -1 assign_mix_13_1_10 -1 assign_mix_15_1_10
  -1 assign_mix_17_1_10 -1 assign_mix_19_1_10 = +0
 mix_active_def_1: +1 mix_active_1 -1 mix_pos_used_1_1 = +0
 full_slot_capacity_2_1: +1 assign_full_2_2_1 +1 assign_full_4_2_1 +1 assign_full_6_2_1 +1 assign_full_8_2_1
  +1 assign_full_10_2_1 +1 assign_full_12_2_1 +1 assign_full_14_2_1 +1 assign_full_16_2_1 +1 assign_full_18_2_1
  +1 assign_full_20_2_1 +1 full_pec_pairs_2_1 -2 full_slot_used_2_1 = +0
 full_slot_has_product_2_1: +1 full_slot_used_2_1 -1 assign_full_2_2_1 -1 assign_full_4_2_1 -1 assign_full_6_2_1
  -1 assign_full_8_2_1 -1 assign_full_10_2_1 -1 assign_full_12_2_1 -1 assign_full_14_2_1 -1 assign_full_16_2_1
  -1 assign_full_18_2_1 -1 assign_full_20_2_1 <= +0
 full_slot_prefix_2_1: +1 full_slot_used_2_1 -1 full_slot_used_2_2 >= +0
 full_after_mix_monotone_2_1: +1 full_after_mix_2_1 -1 full_after_mix_2_2 <= +0
 full_slot_capacity_2_2: +1 assign_full_2_2_2 +1 assign_full_4_2_2 +1 assign_full_6_2_2 +1 assign_full_8_2_2
  +1 assign_full_10_2_2 +1 assign_full_12_2_2 +1 assign_full_14_2_2 +1 assign_full_16_2_2 +1 assign_full_18_2_2
  +1 assign_full_20_2_2 +1 full_pec_pairs_2_2 -2 full_slot_used_2_2 = +0
 full_slot_has_product_2_2: +1 full_slot_used_2_2 -1 assign_full_2_2_2 -1 assign_full_4_2_2 -1 assign_full_6_2_2
  -1 assign_full_8_2_2 -1 assign_full_10_2_2 -1 assign_full_12_2_2 -1 assign_full_14_2_2 -1 assign_full_16_2_2
  -1 assign_full_18_2_2 -1 assign_full_20_2_2 <= +0
 full_slot_prefix_2_2: +1 full_slot_used_2_2 -1 full_slot_used_2_3 >= +0
 full_after_mix_monotone_2_2: +1 full_after_mix_2_2 -1 full_after_mix_2_3 <= +0
 full_slot_capacity_2_3: +1 assign_full_2_2_3 +1 assign_full_4_2_3 +1 assign_full_6_2_3 +1 assign_full_8_2_3
  +1 assign_full_10_2_3 +1 assign_full_12_2_3 +1 assign_full_14_2_3 +1 assign_full_16_2_3 +1 assign_full_18_2_3
  +1 assign_full_20_2_3 +1 full_pec_pairs_2_3 -2 full_slot_used_2_3 = +0
 full_slot_has_product_2_3: +1 full_slot_used_2_3 -1 assign_full_2_2_3 -1 assign_full_4_2_3 -1 assign_full_6_2_3
  -1 assign_full_8_2_3 -1 assign_full_10_2_3 -1 assign_full_12_2_3 -1 assign_full_14_2_3 -1 assign_full_16_2_3
  -1 assign_full_18_2_3 -1 assign_full_20_2_3 <= +0
 full_slot_prefix_2_3: +1 full_slot_used_2_3 -1 full_slot_used_2_4 >= +0
 full_after_mix_monotone_2_3: +1 full_after_mix_2_3 -1 full_after_mix_2_4 <= +0
 full_slot_capacity_2_4: +1 assign_full_2_2_4 +1 assign_full_4_2_4 +1 assign_full_6_2_4 +1 assign_full_8_2_4
  +1 assign_full_10_2_4 +1 assign_full_12_2_4 +1 assign_full_14_2_4 +1 assign_full_16_2_4 +1 assign_full_18_2_4
  +1 assign_full_20_2_4 +1 full_pec_pairs_2_4 -2 full_slot_used_2_4 = +0
 full_slot_has_product_2_4: +1 full_slot_used_2_4 -1 assign_full_2_2_4 -1 assign_full_4_2_4 -1 assign_full_6_2_4
  -1 assign_full_8_2_4 -1 assign_full_10_2_4 -1 assign_full_12_2_4 -1 assign_full_14_2_4 -1 assign_full_16_2_4
  -1 assign_full_18_2_4 -1 assign_full_20_2_4 <= +0
 full_slot_prefix_2_4: +1 full_slot_used_2_4 -1 full_slot_used_2_5 >= +0
 full_after_mix_monotone_2_4: +1 full_after_mix_2_4 -1 full_after_mix_2_5 <= +0
 full_slot_capacity_2_5: +1 assign_full_2_2_5 +1 assign_full_4_2_5 +1 assign_full_6_2_5 +1 assign_full_8_2_5
  +1 assign_full_10_2_5 +1 assign_full_12_2_5 +1 assign_full_14_2_5 +1 assign_full_16_2_5 +1 assign_full_18_2_5
  +1 assign_full_20_2_5 +1 full_pec_pairs_2_5 -2 full_slot_used_2_5 = +0
 full_slot_has_product_2_5: +1 full_slot_used_2_5 -1 assign_full_2_2_5 -1 assign_full_4_2_5 -1 assign_full_6_2_5
  -1 assign_full_8_2_5 -1 assign_full_10_2_5 -1 assign_full_12_2_5 -1 assign_full_14_2_5 -1 assign_full_16_2_5
  -1 assign_full_18_2_5 -1 assign_full_20_2_5 <= +0
 full_slot_prefix_2_5: +1 full_slot_used_2_5 -1 full_slot_used_2_6 >= +0
 full_after_mix_monotone_2_5: +1 full_after_mix_2_5 -1 full_after_mix_2_6 <= +0
 full_slot_capacity_2_6: +1 assign_full_2_2_6 +1 assign_full_4_2_6 +1 assign_full_6_2_6 +1 assign_full_8_2_6
  +1 assign_full_10_2_6 +1 assign_full_12_2_6 +1 assign_full_14_2_6 +1 assign_full_16_2_6 +1 assign_full_18_2_6
  +1 assign_full_20_2_6 +1 full_pec_pairs_2_6 -2 full_slot_used_2_6 = +0
 full_slot_has_product_2_6: +1 full_slot_used_2_6 -1 assign_full_2_2_6 -1 assign_full_4_2_6 -1 assign_full_6_2_6
  -1 assign_full_8_2_6 -1 assign_full_10_2_6 -1 assign_full_12_2_6 -1 assign_full_14_2_6 -1 assign_full_16_2_6
  -1 assign_full_18_2_6 -1 assign_full_20_2_6 <= +0
 full_slot_prefix_2_6: +1 full_slot_used_2_6 -1 full_slot_used_2_7 >= +0
 full_after_mix_monotone_2_6: +1 full_after_mix_2_6 -1 full_after_mix_2_7 <= +0
 full_slot_capacity_2_7: +1 assign_full_2_2_7 +1 assign_full_4_2_7 +1 assign_full_6_2_7 +1 assign_full_8_2_7
  +1 assign_full_10_2_7 +1 assign_full_12_2_7 +1 assign_full_14_2_7 +1 assign_full_16_2_7 +1 assign_full_18_2_7
  +1 assign_full_20_2_7 +1 full_pec_pairs_2_7 -2 full_slot_used_2_7 = +0
 full_slot_has_product_2_7: +1 full_slot_used_2_7 -1 assign_full_2_2_7 -1 assign_full_4_2_7 -1 assign_full_6_2_7
  -1 assign_full_8_2_7 -1 assign_full_10_2_7 -1 assign_full_12_2_7 -1 assign_full_14_2_7 -1 assign_full_16_2_7
  -1 assign_full_18_2_7 -1 assign_full_20_2_7 <= +0
 full_slot_prefix_2_7: +1 full_slot_used_2_7 -1 full_slot_used_2_8 >= +0
 full_after_mix_monotone_2_7: +1 full_after_mix_2_7 -1 full_after_mix_2_8 <= +0
 full_slot_capacity_2_8: +1 assign_full_2_2_8 +1 assign_full_4_2_8 +1 assign_full_6_2_8 +1 assign_full_8_2_8
  +1 assign_full_10_2_8 +1 assign_full_12_2_8 +1 assign_full_14_2_8 +1 assign_full_16_2_8 +1 assign_full_18_2_8
  +1 assign_full_20_2_8 +1 full_pec_pairs_2_8 -2 full_slot_used_2_8 = +0
 full_slot_has_product_2_8: +1 full_slot_used_2_8 -1 assign_full_2_2_8 -1 assign_full_4_2_8 -1 assign_full_6_2_8
  -1 assign_full_8_2_8 -1 assign_full_10_2_8 -1 assign_full_12_2_8 -1 assign_full_14_2_8 -1 assign_full_16_2_8
  -1 assign_full_18_2_8 -1 assign_full_20_2_8 <= +0
 full_slot_prefix_2_8: +1 full_slot_used_2_8 -1 full_slot_used_2_9 >= +0
 full_after_mix_monotone_2_8: +1 full_after_mix_2_8 -1 full_after_mix_2_9 <= +0
 full_slot_capacity_2_9: +1 assign_full_2_2_9 +1 assign_full_4_2_9 +1 assign_full_6_2_9 +1 assign_full_8_2_9
  +1 assign_full_10_2_9 +1 assign_full_12_2_9 +1 assign_full_14_2_9 +1 assign_full_16_2_9 +1 assign_full_18_2_9
  +1 assign_full_20_2_9 +1 full_pec_pairs_2_9 -2 full_slot_used_2_9 = +0
 full_slot_has_product_2_9: +1 full_slot_used_2_9 -1 assign_full_2_2_9 -1 assign_full_4_2_9 -1 assign_full_6_2_9
  -1 assign_full_8_2_9 -1 assign_full_10_2_9 -1 assign_full_12_2_9 -1 assign_full_14_2_9 -1 assign_full_16_2_9
  -1 assign_full_18_2_9 -1 assign_full_20_2_9 <= +0
 full_slot_prefix_2_9: +1 full_slot_used_2_9 -1 full_slot_used_2_10 >= +0
 full_after_mix_monotone_2_9: +1 full_after_mix_2_9 -1 full_after_mix_2_10 <= +0
 full_slot_capacity_2_10: +1 assign_full_2_2_10 +1 assign_full_4_2_10 +1 assign_full_6_2_10 +1 assign_full_8_2_10
  +1 assign_full_10_2_10 +1 assign_full_12_2_10 +1 assign_full_14_2_10 +1 assign_full_16_2_10 +1 assign_full_18_2_10
  +1 assign_full_20_2_10 +1 full_pec_pairs_2_10 -2 full_slot_used_2_10 = +0
 full_slot_has_product_2_10: +1 full_slot_used_2_10 -1 assign_full_2_2_10 -1 assign_full_4_2_10 -1 assign_full_6_2_10
  -1 assign_full_8_2_10 -1 assign_full_10_2_10 -1 assign_full_12_2_10 -1 assign_full_14_2_10 -1 assign_full_16_2_10
  -1 assign_full_18_2_10 -1 assign_full_20_2_10 <= +0
 mix_pos_capacity_2_1: +1 mix_pos_used_2_1 -1 assign_mix_1_2_1 -1 assign_mix_3_2_1 -1 assign_mix_5_2_1
  -1 assign_mix_7_2_1 -1 assign_mix_9_2_1 -1 assign_mix_11_2_1 -1 assign_mix_13_2_1 -1 assign_mix_15_2_1
  -1 assign_mix_17_2_1 -1 assign_mix_19_2_1 = +0
 mix_pos_prefix_2_1: +1 mix_pos_used_2_1 -1 mix_pos_used_2_2 >= +0
 mix_pos_capacity_2_2: +1 mix_pos_used_2_2 -1 assign_mix_1_2_2 -1 assign_mix_3_2_2 -1 assign_mix_5_2_2
  -1 assign_mix_7_2_2 -1 assign_mix_9_2_2 -1 assign_mix_11_2_2 -1 assign_mix_13_2_2 -1 assign_mix_15_2_2
  -1 assign_mix_17_2_2 -1 assign_mix_19_2_2 = +0
 mix_pos_prefix_2_2: +1 mix_pos_used_2_2 -1 mix_pos_used_2_3 >= +0
 mix_pos_capacity_2_3: +1 mix_pos_used_2_3 -1 assign_mix_1_2_3 -1 assign_mix_3_2_3 -1 assign_mix_5_2_3
  -1 assign_mix_7_2_3 -1 assign_mix_9_2_3 -1 assign_mix_11_2_3 -1 assign_mix_13_2_3 -1 assign_mix_15_2_3
  -1 assign_mix_17_2_3 -1 assign_mix_19_2_3 = +0
 mix_pos_prefix_2_3: +1 mix_pos_used_2_3 -1 mix_pos_used_2_4 >= +0
 mix_pos_capacity_2_4: +1 mix_pos_used_2_4 -1 assign_mix_1_2_4 -1 assign_mix_3_2_4 -1 assign_mix_5_2_4
  -1 assign_mix_7_2_4 -1 assign_mix_9_2_4 -1 assign_mix_11_2_4 -1 assign_mix_13_2_4 -1 assign_mix_15_2_4
  -1 assign_mix_17_2_4 -1 assign_mix_19_2_4 = +0
 mix_pos_prefix_2_4: +1 mix_pos_used_2_4 -1 mix_pos_used_2_5 >= +0
 mix_pos_capacity_2_5: +1 mix_pos_used_2_5 -1 assign_mix_1_2_5 -1 assign_mix_3_2_5 -1 assign_mix_5_2_5
  -1 assign_mix_7_2_5 -1 assign_mix_9_2_5 -1 assign_mix_11_2_5 -1 assign_mix_13_2_5 -1 assign_mix_15_2_5
  -1 assign_mix_17_2_5 -1 assign_mix_19_2_5 = +0
 mix_pos_prefix_2_5: +1 mix_pos_used_2_5 -1 mix_pos_used_2_6 >= +0
 mix_pos_capacity_2_6: +1 mix_pos_used_2_6 -1 assign_mix_1_2_6 -1 assign_mix_3_2_6 -1 assign_mix_5_2_6
  -1 assign_mix_7_2_6 -1 assign_mix_9_2_6 -1 assign_mix_11_2_6 -1 assign_mix_13_2_6 -1 assign_mix_15_2_6
  -1 assign_mix_17_2_6 -1 assign_mix_19_2_6 = +0
 mix_pos_prefix_2_6: +1 mix_pos_used_2_6 -1 mix_pos_used_2_7 >= +0
 mix_pos_capacity_2_7: +1 mix_pos_used_2_7 -1 assign_mix_1_2_7 -1 assign_mix_3_2_7 -1 assign_mix_5_2_7
  -1 assign_mix_7_2_7 -1 assign_mix_9_2_7 -1 assign_mix_11_2_7 -1 assign_mix_13_2_7 -1 assign_mix_15_2_7
  -1 assign_mix_17_2_7 -1 assign_mix_19_2_7 = +0
 mix_pos_prefix_2_7: +1 mix_pos_used_2_7 -1 mix_pos_used_2_8 >= +0
 mix_pos_capacity_2_8: +1 mix_pos_used_2_8 -1 assign_mix_1_2_8 -1 assign_mix_3_2_8 -1 assign_mix_5_2_8
  -1 assign_mix_7_2_8 -1 assign_mix_9_2_8 -1 assign_mix_11_2_8 -1 assign_mix_13_2_8 -1 assign_mix_15_2_8
  -1 assign_mix_17_2_8 -1 assign_mix_19_2_8 = +0
 mix_pos_prefix_2_8: +1 mix_pos_used_2_8 -1 mix_pos_used_2_9 >= +0
 mix_pos_capacity_2_9: +1 mix_pos_used_2_9 -1 assign_mix_1_2_9 -1 assign_mix_3_2_9 -1 assign_mix_5_2_9
  -1 assign_mix_7_2_9 -1 assign_mix_9_2_9 -1 assign_mix_11_2_9 -1 assign_mix_13_2_9 -1 assign_mix_15_2_9
  -1 assign_mix_17_2_9 -1 assign_mix_19_2_9 = +0
 mix_pos_prefix_2_9: +1 mix_pos_used_2_9 -1 mix_pos_used_2_10 >= +0
 mix_pos_capacity_2_10: +1 mix_pos_used_2_10 -1 assign_mix_1_2_10 -1 assign_mix_3_2_10 -1 assign_mix_5_2_10
  -1 assign_mix_7_2_10 -1 assign_mix_9_2_10 -1 assign_mix_11_2_10 -1 assign_mix_13_2_10 -1 assign_mix_15_2_10
  -1 assign_mix_17_2_10 -1 assign_mix_19_2_10 = +0
 mix_active_def_2: +1 mix_active_2 -1 mix_pos_used_2_1 = +0
 pec_pair_budget: +1 full_pec_pairs_1_1 +1 full_pec_pairs_1_2 +1 full_pec_pairs_1_3 +1 full_pec_pairs_1_4
  +1 full_pec_pairs_1_5 +1 full_pec_pairs_1_6 +1 full_pec_pairs_1_7 +1 full_pec_pairs_1_8 +1 full_pec_pairs_1_9
  +1 full_pec_pairs_1_10 +1 full_pec_pairs_2_1 +1 full_pec_pairs_2_2 +1 full_pec_pairs_2_3 +1 full_pec_pairs_2_4
  +1 full_pec_pairs_2_5 +1 full_pec_pairs_2_6 +1 full_pec_pairs_2_7 +1 full_pec_pairs_2_8 +1 full_pec_pairs_2_9
  +1 full_pec_pairs_2_10 +2 mix_active_1 +2 mix_active_2 <= +20
 mix_cycle_lead_exists_1: +1 mix_cycle_used_1_1 -1 mix_pos_used_1_1 = +0
 mix_cycle_prev_1_2: +1 mix_cycle_used_1_2 -1 mix_pos_used_1_1 >= +0
 mix_cycle_next_1_2: +1 mix_cycle_used_1_2 -1 mix_pos_used_1_2 >= +0
 mix_cycle_union_1_2: +1 mix_cycle_used_1_2 -1 mix_pos_used_1_1 -1 mix_pos_used_1_2 <= +0
 mix_cycle_prev_1_3: +1 mix_cycle_used_1_3 -1 mix_pos_used_1_2 >= +0
 mix_cycle_next_1_3: +1 mix_cycle_used_1_3 -1 mix_pos_used_1_3 >= +0
 mix_cycle_union_1_3: +1 mix_cycle_used_1_3 -1 mix_pos_used_1_2 -1 mix_pos_used_1_3 <= +0
 mix_cycle_prev_1_4: +1 mix_cycle_used_1_4 -1 mix_pos_used_1_3 >= +0
 mix_cycle_next_1_4: +1 mix_cycle_used_1_4 -1 mix_pos_used_1_4 >= +0
 mix_cycle_union_1_4: +1 mix_cycle_used_1_4 -1 mix_pos_used_1_3 -1 mix_pos_used_1_4 <= +0
 mix_cycle_prev_1_5: +1 mix_cycle_used_1_5 -1 mix_pos_used_1_4 >= +0
 mix_cycle_next_1_5: +1 mix_cycle_used_1_5 -1 mix_pos_used_1_5 >= +0
 mix_cycle_union_1_5: +1 mix_cycle_used_1_5 -1 mix_pos_used_1_4 -1 mix_pos_used_1_5 <= +0
 mix_cycle_prev_1_6: +1 mix_cycle_used_1_6 -1 mix_pos_used_1_5 >= +0
 mix_cycle_next_1_6: +1 mix_cycle_used_1_6 -1 mix_pos_used_1_6 >= +0
 mix_cycle_union_1_6: +1 mix_cycle_used_1_6 -1 mix_pos_used_1_5 -1 mix_pos_used_1_6 <= +0
 mix_cycle_prev_1_7: +1 mix_cycle_used_1_7 -1 mix_pos_used_1_6 >= +0
 mix_cycle_next_1_7: +1 mix_cycle_used_1_7 -1 mix_pos_used_1_7 >= +0
 mix_cycle_union_1_7: +1 mix_cycle_used_1_7 -1 mix_pos_used_1_6 -1 mix_pos_used_1_7 <= +0
 mix_cycle_prev_1_8: +1 mix_cycle_used_1_8 -1 mix_pos_used_1_7 >= +0
 mix_cycle_next_1_8: +1 mix_cycle_used_1_8 -1 mix_pos_used_1_8 >= +0
 mix_cycle_union_1_8: +1 mix_cycle_used_1_8 -1 mix_pos_used_1_7 -1 mix_pos_used_1_8 <= +0
 mix_cycle_prev_1_9: +1 mix_cycle_used_1_9 -1 mix_pos_used_1_8 >= +0
 mix_cycle_next_1_9: +1 mix_cycle_used_1_9 -1 mix_pos_used_1_9 >= +0
 mix_cycle_union_1_9: +1 mix_cycle_used_1_9 -1 mix_pos_used_1_8 -1 mix_pos_used_1_9 <= +0
 mix_cycle_prev_1_10: +1 mix_cycle_used_1_10 -1 mix_pos_used_1_9 >= +0
 mix_cycle_next_1_10: +1 mix_cycle_used_1_10 -1 mix_pos_used_1_10 >= +0
 mix_cycle_union_1_10: +1 mix_cycle_used_1_10 -1 mix_pos_used_1_9 -1 mix_pos_used_1_10 <= +0
 mix_cycle_tail_exists_1: +1 mix_cycle_used_1_11 -1 mix_pos_used_1_10 = +0
 mix_cycle_prefix_1_1: +1 mix_cycle_used_1_1 -1 mix_cycle_used_1_2 >= +0
 mix_cycle_prefix_1_2: +1 mix_cycle_used_1_2 -1 mix_cycle_used_1_3 >= +0
 mix_cycle_prefix_1_3: +1 mix_cycle_used_1_3 -1 mix_cycle_used_1_4 >= +0
 mix_cycle_prefix_1_4: +1 mix_cycle_used_1_4 -1 mix_cycle_used_1_5 >= +0
 mix_cycle_prefix_1_5: +1 mix_cycle_used_1_5 -1 mix_cycle_used_1_6 >= +0
 mix_cycle_prefix_1_6: +1 mix_cycle_used_1_6 -1 mix_cycle_used_1_7 >= +0
 mix_cycle_prefix_1_7: +1 mix_cycle_used_1_7 -1 mix_cycle_used_1_8 >= +0
 mix_cycle_prefix_1_8: +1 mix_cycle_used_1_8 -1 mix_cycle_used_1_9 >= +0
 mix_cycle_prefix_1_9: +1 mix_cycle_used_1_9 -1 mix_cycle_used_1_10 >= +0
 mix_cycle_prefix_1_10: +1 mix_cycle_used_1_10 -1 mix_cycle_used_1_11 >= +0
 mix_last_cycle_unique_1: +1 mix_active_1 -1 mix_last_cycle_1_1 -1 mix_last_cycle_1_2 -1 mix_last_cycle_1_3
  -1 mix_last_cycle_1_4 -1 mix_last_cycle_1_5 -1 mix_last_cycle_1_6 -1 mix_last_cycle_1_7 -1 mix_last_cycle_1_8
  -1 mix_last_cycle_1_9 -1 mix_last_cycle_1_10 -1 mix_last_cycle_1_11 = +0
 mix_last_cycle_active_1_1: +1 mix_last_cycle_1_1 -1 mix_cycle_used_1_1 <= +0
 mix_last_cycle_tail_only_1_1: +1 mix_last_cycle_1_1 +1 mix_cycle_used_1_2 <= +1
 mix_last_cycle_exact_1_1: +1 mix_last_cycle_1_1 -1 mix_cycle_used_1_1 +1 mix_cycle_used_1_2 >= +0
 mix_last_cycle_active_1_2: +1 mix_last_cycle_1_2 -1 mix_cycle_used_1_2 <= +0
 mix_last_cycle_tail_only_1_2: +1 mix_last_cycle_1_2 +1 mix_cycle_used_1_3 <= +1
 mix_last_cycle_exact_1_2: +1 mix_last_cycle_1_2 -1 mix_cycle_used_1_2 +1 mix_cycle_used_1_3 >= +0
 mix_last_cycle_active_1_3: +1 mix_last_cycle_1_3 -1 mix_cycle_used_1_3 <= +0
 mix_last_cycle_tail_only_1_3: +1 mix_last_cycle_1_3 +1 mix_cycle_used_1_4 <= +1
 mix_last_cycle_exact_1_3: +1 mix_last_cycle_1_3 -1 mix_cycle_used_1_3 +1 mix_cycle_used_1_4 >= +0
 mix_last_cycle_active_1_4: +1 mix_last_cycle_1_4 -1 mix_cycle_used_1_4 <= +0
 mix_last_cycle_tail_only_1_4: +1 mix_last_cycle_1_4 +1 mix_cycle_used_1_5 <= +1
 mix_last_cycle_exact_1_4: +1 mix_last_cycle_1_4 -1 mix_cycle_used_1_4 +1 mix_cycle_used_1_5 >= +0
 mix_last_cycle_active_1_5: +1 mix_last_cycle_1_5 -1 mix_cycle_used_1_5 <= +0
 mix_last_cycle_tail_only_1_5: +1 mix_last_cycle_1_5 +1 mix_cycle_used_1_6 <= +1
 mix_last_cycle_exact_1_5: +1 mix_last_cycle_1_5 -1 mix_cycle_used_1_5 +1 mix_cycle_used_1_6 >= +0
 mix_last_cycle_active_1_6: +1 mix_last_cycle_1_6 -1 mix_cycle_used_1_6 <= +0
 mix_last_cycle_tail_only_1_6: +1 mix_last_cycle_1_6 +1 mix_cycle_used_1_7 <= +1
 mix_last_cycle_exact_1_6: +1 mix_last_cycle_1_6 -1 mix_cycle_used_1_6 +1 mix_cycle_used_1_7 >= +0
 mix_last_cycle_active_1_7: +1 mix_last_cycle_1_7 -1 mix_cycle_used_1_7 <= +0
 mix_last_cycle_tail_only_1_7: +1 mix_last_cycle_1_7 +1 mix_cycle_used_1_8 <= +1
 mix_last_cycle_exact_1_7: +1 mix_last_cycle_1_7 -1 mix_cycle_used_1_7 +1 mix_cycle_used_1_8 >= +0
 mix_last_cycle_active_1_8: +1 mix_last_cycle_1_8 -1 mix_cycle_used_1_8 <= +0
 mix_last_cycle_tail_only_1_8: +1 mix_last_cycle_1_8 +1 mix_cycle_used_1_9 <= +1
 mix_last_cycle_exact_1_8: +1 mix_last_cycle_1_8 -1 mix_cycle_used_1_8 +1 mix_cycle_used_1_9 >= +0
 mix_last_cycle_active_1_9: +1 mix_last_cycle_1_9 -1 mix_cycle_used_1_9 <= +0
 mix_last_cycle_tail_only_1_9: +1 mix_last_cycle_1_9 +1 mix_cycle_used_1_10 <= +1
 mix_last_cycle_exact_1_9: +1 mix_last_cycle_1_9 -1 mix_cycle_used_1_9 +1 mix_cycle_used_1_10 >= +0
 mix_last_cycle_active_1_10: +1 mix_last_cycle_1_10 -1 mix_cycle_used_1_10 <= +0
 mix_last_cycle_tail_only_1_10: +1 mix_last_cycle_1_10 +1 mix_cycle_used_1_11 <= +1
 mix_last_cycle_exact_1_10: +1 mix_last_cycle_1_10 -1 mix_cycle_used_1_10 +1 mix_cycle_used_1_11 >= +0
 mix_last_cycle_terminal_1: +1 mix_last_cycle_1_11 -1 mix_cycle_used_1_11 = +0
 mix_cycle_lead_exists_2: +1 mix_cycle_used_2_1 -1 mix_pos_used_2_1 = +0
 mix_cycle_prev_2_2: +1 mix_cycle_used_2_2 -1 mix_pos_used_2_1 >= +0
 mix_cycle_next_2_2: +1 mix_cycle_used_2_2 -1 mix_pos_used_2_2 >= +0
 mix_cycle_union_2_2: +1 mix_cycle_used_2_2 -1 mix_pos_used_2_1 -1 mix_pos_used_2_2 <= +0
 mix_cycle_prev_2_3: +1 mix_cycle_used_2_3 -1 mix_pos_used_2_2 >= +0
 mix_cycle_next_2_3: +1 mix_cycle_used_2_3 -1 mix_pos_used_2_3 >= +0
 mix_cycle_union_2_3: +1 mix_cycle_used_2_3 -1 mix_pos_used_2_2 -1 mix_pos_used_2_3 <= +0
 mix_cycle_prev_2_4: +1 mix_cycle_used_2_4 -1 mix_pos_used_2_3 >= +0
 mix_cycle_next_2_4: +1 mix_cycle_used_2_4 -1 mix_pos_used_2_4 >= +0
 mix_cycle_union_2_4: +1 mix_cycle_used_2_4 -1 mix_pos_used_2_3 -1 mix_pos_used_2_4 <= +0
 mix_cycle_prev_2_5: +1 mix_cycle_used_2_5 -1 mix_pos_used_2_4 >= +0
 mix_cycle_next_2_5: +1 mix_cycle_used_2_5 -1 mix_pos_used_2_5 >= +0
 mix_cycle_union_2_5: +1 mix_cycle_used_2_5 -1 mix_pos_used_2_4 -1 mix_pos_used_2_5 <= +0
 mix_cycle_prev_2_6: +1 mix_cycle_used_2_6 -1 mix_pos_used_2_5 >= +0
 mix_cycle_next_2_6: +1 mix_cycle_used_2_6 -1 mix_pos_used_2_6 >= +0
 mix_cycle_union_2_6: +1 mix_cycle_used_2_6 -1 mix_pos_used_2_5 -1 mix_pos_used_2_6 <= +0
 mix_cycle_prev_2_7: +1 mix_cycle_used_2_7 -1 mix_pos_used_2_6 >= +0
 mix_cycle_next_2_7: +1 mix_cycle_used_2_7 -1 mix_pos_used_2_7 >= +0
 mix_cycle_union_2_7: +1 mix_cycle_used_2_7 -1 mix_pos_used_2_6 -1 mix_pos_used_2_7 <= +0
 mix_cycle_prev_2_8: +1 mix_cycle_used_2_8 -1 mix_pos_used_2_7 >= +0
 mix_cycle_next_2_8: +1 mix_cycle_used_2_8 -1 mix_pos_used_2_8 >= +0
 mix_cycle_union_2_8: +1 mix_cycle_used_2_8 -1 mix_pos_used_2_7 -1 mix_pos_used_2_8 <= +0
 mix_cycle_prev_2_9: +1 mix_cycle_used_2_9 -1 mix_pos_used_2_8 >= +0
 mix_cycle_next_2_9: +1 mix_cycle_used_2_9 -1 mix_pos_used_2_9 >= +0
 mix_cycle_union_2_9: +1 mix_cycle_used_2_9 -1 mix_pos_used_2_8 -1 mix_pos_used_2_9 <= +0
 mix_cycle_prev_2_10: +1 mix_cycle_used_2_10 -1 mix_pos_used_2_9 >= +0
 mix_cycle_next_2_10: +1 mix_cycle_used_2_10 -1 mix_pos_used_2_10 >= +0
 mix_cycle_union_2_10: +1 mix_cycle_used_2_10 -1 mix_pos_used_2_9 -1 mix_pos_used_2_10 <= +0
 mix_cycle_tail_exists_2: +1 mix_cycle_used_2_11 -1 mix_pos_used_2_10 = +0
 mix_cycle_prefix_2_1: +1 mix_cycle_used_2_1 -1 mix_cycle_used_2_2 >= +0
 mix_cycle_prefix_2_2: +1 mix_cycle_used_2_2 -1 mix_cycle_used_2_3 >= +0
 mix_cycle_prefix_2_3: +1 mix_cycle_used_2_3 -1 mix_cycle_used_2_4 >= +0
 mix_cycle_prefix_2_4: +1 mix_cycle_used_2_4 -1 mix_cycle_used_2_5 >= +0
 mix_cycle_prefix_2_5: +1 mix_cycle_used_2_5 -1 mix_cycle_used_2_6 >= +0
 mix_cycle_prefix_2_6: +1 mix_cycle_used_2_6 -1 mix_cycle_used_2_7 >= +0
 mix_cycle_prefix_2_7: +1 mix_cycle_used_2_7 -1 mix_cycle_used_2_8 >= +0
 mix_cycle_prefix_2_8: +1 mix_cycle_used_2_8 -1 mix_cycle_used_2_9 >= +0
 mix_cycle_prefix_2_9: +1 mix_cycle_used_2_9 -1 mix_cycle_used_2_10 >= +0
 mix_cycle_prefix_2_10: +1 mix_cycle_used_2_10 -1 mix_cycle_used_2_11 >= +0
 mix_last_cycle_unique_2: +1 mix_active_2 -1 mix_last_cycle_2_1 -1 mix_last_cycle_2_2 -1 mix_last_cycle_2_3
  -1 mix_last_cycle_2_4 -1 mix_last_cycle_2_5 -1 mix_last_cycle_2_6 -1 mix_last_cycle_2_7 -1 mix_last_cycle_2_8
  -1 mix_last_cycle_2_9 -1 mix_last_cycle_2_10 -1 mix_last_cycle_2_11 = +0
 mix_last_cycle_active_2_1: +1 mix_last_cycle_2_1 -1 mix_cycle_used_2_1 <= +0
 mix_last_cycle_tail_only_2_1: +1 mix_last_cycle_2_1 +1 mix_cycle_used_2_2 <= +1
 mix_last_cycle_exact_2_1: +1 mix_last_cycle_2_1 -1 mix_cycle_used_2_1 +1 mix_cycle_used_2_2 >= +0
 mix_last_cycle_active_2_2: +1 mix_last_cycle_2_2 -1 mix_cycle_used_2_2 <= +0
 mix_last_cycle_tail_only_2_2: +1 mix_last_cycle_2_2 +1 mix_cycle_used_2_3 <= +1
 mix_last_cycle_exact_2_2: +1 mix_last_cycle_2_2 -1 mix_cycle_used_2_2 +1 mix_cycle_used_2_3 >= +0
 mix_last_cycle_active_2_3: +1 mix_last_cycle_2_3 -1 mix_cycle_used_2_3 <= +0
 mix_last_cycle_tail_only_2_3: +1 mix_last_cycle_2_3 +1 mix_cycle_used_2_4 <= +1
 mix_last_cycle_exact_2_3: +1 mix_last_cycle_2_3 -1 mix_cycle_used_2_3 +1 mix_cycle_used_2_4 >= +0
 mix_last_cycle_active_2_4: +1 mix_last_cycle_2_4 -1 mix_cycle_used_2_4 <= +0
 mix_last_cycle_tail_only_2_4: +1 mix_last_cycle_2_4 +1 mix_cycle_used_2_5 <= +1
 mix_last_cycle_exact_2_4: +1 mix_last_cycle_2_4 -1 mix_cycle_used_2_4 +1 mix_cycle_used_2_5 >= +0
 mix_last_cycle_active_2_5: +1 mix_last_cycle_2_5 -1 mix_cycle_used_2_5 <= +0
 mix_last_cycle_tail_only_2_5: +1 mix_last_cycle_2_5 +1 mix_cycle_used_2_6 <= +1
 mix_last_cycle_exact_2_5: +1 mix_last_cycle_2_5 -1 mix_cycle_used_2_5 +1 mix_cycle_used_2_6 >= +0
 mix_last_cycle_active_2_6: +1 mix_last_cycle_2_6 -1 mix_cycle_used_2_6 <= +0
 mix_last_cycle_tail_only_2_6: +1 mix_last_cycle_2_6 +1 mix_cycle_used_2_7 <= +1
 mix_last_cycle_exact_2_6: +1 mix_last_cycle_2_6 -1 mix_cycle_used_2_6 +1 mix_cycle_used_2_7 >= +0
 mix_last_cycle_active_2_7: +1 mix_last_cycle_2_7 -1 mix_cycle_used_2_7 <= +0
 mix_last_cycle_tail_only_2_7: +1 mix_last_cycle_2_7 +1 mix_cycle_used_2_8 <= +1
 mix_last_cycle_exact_2_7: +1 mix_last_cycle_2_7 -1 mix_cycle_used_2_7 +1 mix_cycle_used_2_8 >= +0
 mix_last_cycle_active_2_8: +1 mix_last_cycle_2_8 -1 mix_cycle_used_2_8 <= +0
 mix_last_cycle_tail_only_2_8: +1 mix_last_cycle_2_8 +1 mix_cycle_used_2_9 <= +1
 mix_last_cycle_exact_2_8: +1 mix_last_cycle_2_8 -1 mix_cycle_used_2_8 +1 mix_cycle_used_2_9 >= +0
 mix_last_cycle_active_2_9: +1 mix_last_cycle_2_9 -1 mix_cycle_used_2_9 <= +0
 mix_last_cycle_tail_only_2_9: +1 mix_last_cycle_2_9 +1 mix_cycle_used_2_10 <= +1
 mix_last_cycle_exact_2_9: +1 mix_last_cycle_2_9 -1 mix_cycle_used_2_9 +1 mix_cycle_used_2_10 >= +0
 mix_last_cycle_active_2_10: +1 mix_last_cycle_2_10 -1 mix_cycle_used_2_10 <= +0
 mix_last_cycle_tail_only_2_10: +1 mix_last_cycle_2_10 +1 mix_cycle_used_2_11 <= +1
 mix_last_cycle_exact_2_10: +1 mix_last_cycle_2_10 -1 mix_cycle_used_2_10 +1 mix_cycle_used_2_11 >= +0
 mix_last_cycle_terminal_2: +1 mix_last_cycle_2_11 -1 mix_cycle_used_2_11 = +0
 full_start_cap_1_1: +1 full_start_1_1 -10000 full_slot_used_1_1 <= +0
 full_end_cap_1_1: +1 full_end_1_1 -10000 full_slot_used_1_1 <= +0
 full_duration_1_1: +1 full_end_1_1 -1 full_start_1_1 -120 full_slot_used_1_1 = +0
 full_sequence_lb_1_1: +1 full_start_1_2 -1 full_end_1_1 -10000 full_slot_used_1_1 -10000 full_slot_used_1_2
  >= -19994
 full_start_cap_1_2: +1 full_start_1_2 -10000 full_slot_used_1_2 <= +0
 full_end_cap_1_2: +1 full_end_1_2 -10000 full_slot_used_1_2 <= +0
 full_duration_1_2: +1 full_end_1_2 -1 full_start_1_2 -120 full_slot_used_1_2 = +0
 full_sequence_lb_1_2: +1 full_start_1_3 -1 full_end_1_2 -10000 full_slot_used_1_2 -10000 full_slot_used_1_3
  >= -19994
 full_start_cap_1_3: +1 full_start_1_3 -10000 full_slot_used_1_3 <= +0
 full_end_cap_1_3: +1 full_end_1_3 -10000 full_slot_used_1_3 <= +0
 full_duration_1_3: +1 full_end_1_3 -1 full_start_1_3 -120 full_slot_used_1_3 = +0
 full_sequence_lb_1_3: +1 full_start_1_4 -1 full_end_1_3 -10000 full_slot_used_1_3 -10000 full_slot_used_1_4
  >= -19994
 full_start_cap_1_4: +1 full_start_1_4 -10000 full_slot_used_1_4 <= +0
 full_end_cap_1_4: +1 full_end_1_4 -10000 full_slot_used_1_4 <= +0
 full_duration_1_4: +1 full_end_1_4 -1 full_start_1_4 -120 full_slot_used_1_4 = +0
 full_sequence_lb_1_4: +1 full_start_1_5 -1 full_end_1_4 -10000 full_slot_used_1_4 -10000 full_slot_used_1_5
  >= -19994
 full_start_cap_1_5: +1 full_start_1_5 -10000 full_slot_used_1_5 <= +0
 full_end_cap_1_5: +1 full_end_1_5 -10000 full_slot_used_1_5 <= +0
 full_duration_1_5: +1 full_end_1_5 -1 full_start_1_5 -120 full_slot_used_1_5 = +0
 full_sequence_lb_1_5: +1 full_start_1_6 -1 full_end_1_5 -10000 full_slot_used_1_5 -10000 full_slot_used_1_6
  >= -19994
 full_start_cap_1_6: +1 full_start_1_6 -10000 full_slot_used_1_6 <= +0
 full_end_cap_1_6: +1 full_end_1_6 -10000 full_slot_used_1_6 <= +0
 full_duration_1_6: +1 full_end_1_6 -1 full_start_1_6 -120 full_slot_used_1_6 = +0
 full_sequence_lb_1_6: +1 full_start_1_7 -1 full_end_1_6 -10000 full_slot_used_1_6 -10000 full_slot_used_1_7
  >= -19994
 full_start_cap_1_7: +1 full_start_1_7 -10000 full_slot_used_1_7 <= +0
 full_end_cap_1_7: +1 full_end_1_7 -10000 full_slot_used_1_7 <= +0
 full_duration_1_7: +1 full_end_1_7 -1 full_start_1_7 -120 full_slot_used_1_7 = +0
 full_sequence_lb_1_7: +1 full_start_1_8 -1 full_end_1_7 -10000 full_slot_used_1_7 -10000 full_slot_used_1_8
  >= -19994
 full_start_cap_1_8: +1 full_start_1_8 -10000 full_slot_used_1_8 <= +0
 full_end_cap_1_8: +1 full_end_1_8 -10000 full_slot_used_1_8 <= +0
 full_duration_1_8: +1 full_end_1_8 -1 full_start_1_8 -120 full_slot_used_1_8 = +0
 full_sequence_lb_1_8: +1 full_start_1_9 -1 full_end_1_8 -10000 full_slot_used_1_8 -10000 full_slot_used_1_9
  >= -19994
 full_start_cap_1_9: +1 full_start_1_9 -10000 full_slot_used_1_9 <= +0
 full_end_cap_1_9: +1 full_end_1_9 -10000 full_slot_used_1_9 <= +0
 full_duration_1_9: +1 full_end_1_9 -1 full_start_1_9 -120 full_slot_used_1_9 = +0
 full_sequence_lb_1_9: +1 full_start_1_10 -1 full_end_1_9 -10000 full_slot_used_1_9 -10000 full_slot_used_1_10
  >= -19994
 full_start_cap_1_10: +1 full_start_1_10 -10000 full_slot_used_1_10 <= +0
 full_end_cap_1_10: +1 full_end_1_10 -10000 full_slot_used_1_10 <= +0
 full_duration_1_10: +1 full_end_1_10 -1 full_start_1_10 -120 full_slot_used_1_10 = +0
 mix_cycle_start_cap_1_1: +1 mix_cycle_start_1_1 -10000 mix_cycle_used_1_1 <= +0
 mix_cycle_end_cap_1_1: +1 mix_cycle_end_1_1 -10000 mix_cycle_used_1_1 <= +0
 mix_cycle_duration_1_1: +1 mix_cycle_end_1_1 -1 mix_cycle_start_1_1 -70 mix_cycle_used_1_1 = +0
 mix_cycle_sequence_lb_1_1: +1 mix_cycle_start_1_2 -1 mix_cycle_end_1_1 -10000 mix_cycle_used_1_2 >= -9994
 mix_cycle_sequence_ub_1_1: +1 mix_cycle_start_1_2 -1 mix_cycle_end_1_1 +10000 mix_cycle_used_1_1 +10000 mix_cycle_used_1_2
  <= +20006
 mix_cycle_start_cap_1_2: +1 mix_cycle_start_1_2 -10000 mix_cycle_used_1_2 <= +0
 mix_cycle_end_cap_1_2: +1 mix_cycle_end_1_2 -10000 mix_cycle_used_1_2 <= +0
 mix_cycle_duration_1_2: +1 mix_cycle_end_1_2 -1 mix_cycle_start_1_2 -70 mix_cycle_used_1_2 = +0
 mix_cycle_sequence_lb_1_2: +1 mix_cycle_start_1_3 -1 mix_cycle_end_1_2 -10000 mix_cycle_used_1_3 >= -9994
 mix_cycle_sequence_ub_1_2: +1 mix_cycle_start_1_3 -1 mix_cycle_end_1_2 +10000 mix_cycle_used_1_2 +10000 mix_cycle_used_1_3
  <= +20006
 mix_cycle_start_cap_1_3: +1 mix_cycle_start_1_3 -10000 mix_cycle_used_1_3 <= +0
 mix_cycle_end_cap_1_3: +1 mix_cycle_end_1_3 -10000 mix_cycle_used_1_3 <= +0
 mix_cycle_duration_1_3: +1 mix_cycle_end_1_3 -1 mix_cycle_start_1_3 -70 mix_cycle_used_1_3 = +0
 mix_cycle_sequence_lb_1_3: +1 mix_cycle_start_1_4 -1 mix_cycle_end_1_3 -10000 mix_cycle_used_1_4 >= -9994
 mix_cycle_sequence_ub_1_3: +1 mix_cycle_start_1_4 -1 mix_cycle_end_1_3 +10000 mix_cycle_used_1_3 +10000 mix_cycle_used_1_4
  <= +20006
 mix_cycle_start_cap_1_4: +1 mix_cycle_start_1_4 -10000 mix_cycle_used_1_4 <= +0
 mix_cycle_end_cap_1_4: +1 mix_cycle_end_1_4 -10000 mix_cycle_used_1_4 <= +0
 mix_cycle_duration_1_4: +1 mix_cycle_end_1_4 -1 mix_cycle_start_1_4 -70 mix_cycle_used_1_4 = +0
 mix_cycle_sequence_lb_1_4: +1 mix_cycle_start_1_5 -1 mix_cycle_end_1_4 -10000 mix_cycle_used_1_5 >= -9994
 mix_cycle_sequence_ub_1_4: +1 mix_cycle_start_1_5 -1 mix_cycle_end_1_4 +10000 mix_cycle_used_1_4 +10000 mix_cycle_used_1_5
  <= +20006
 mix_cycle_start_cap_1_5: +1 mix_cycle_start_1_5 -10000 mix_cycle_used_1_5 <= +0
 mix_cycle_end_cap_1_5: +1 mix_cycle_end_1_5 -10000 mix_cycle_used_1_5 <= +0
 mix_cycle_duration_1_5: +1 mix_cycle_end_1_5 -1 mix_cycle_start_1_5 -70 mix_cycle_used_1_5 = +0
 mix_cycle_sequence_lb_1_5: +1 mix_cycle_start_1_6 -1 mix_cycle_end_1_5 -10000 mix_cycle_used_1_6 >= -9994
 mix_cycle_sequence_ub_1_5: +1 mix_cycle_start_1_6 -1 mix_cycle_end_1_5 +10000 mix_cycle_used_1_5 +10000 mix_cycle_used_1_6
  <= +20006
 mix_cycle_start_cap_1_6: +1 mix_cycle_start_1_6 -10000 mix_cycle_used_1_6 <= +0
 mix_cycle_end_cap_1_6: +1 mix_cycle_end_1_6 -10000 mix_cycle_used_1_6 <= +0
 mix_cycle_duration_1_6: +1 mix_cycle_end_1_6 -1 mix_cycle_start_1_6 -70 mix_cycle_used_1_6 = +0
 mix_cycle_sequence_lb_1_6: +1 mix_cycle_start_1_7 -1 mix_cycle_end_1_6 -10000 mix_cycle_used_1_7 >= -9994
 mix_cycle_sequence_ub_1_6: +1 mix_cycle_start_1_7 -1 mix_cycle_end_1_6 +10000 mix_cycle_used_1_6 +10000 mix_cycle_used_1_7
  <= +20006
 mix_cycle_start_cap_1_7: +1 mix_cycle_start_1_7 -10000 mix_cycle_used_1_7 <= +0
 mix_cycle_end_cap_1_7: +1 mix_cycle_end_1_7 -10000 mix_cycle_used_1_7 <= +0
 mix_cycle_duration_1_7: +1 mix_cycle_end_1_7 -1 mix_cycle_start_1_7 -70 mix_cycle_used_1_7 = +0
 mix_cycle_sequence_lb_1_7: +1 mix_cycle_start_1_8 -1 mix_cycle_end_1_7 -10000 mix_cycle_used_1_8 >= -9994
 mix_cycle_sequence_ub_1_7: +1 mix_cycle_start_1_8 -1 mix_cycle_end_1_7 +10000 mix_cycle_used_1_7 +10000 mix_cycle_used_1_8
  <= +20006
 mix_cycle_start_cap_1_8: +1 mix_cycle_start_1_8 -10000 mix_cycle_used_1_8 <= +0
 mix_cycle_end_cap_1_8: +1 mix_cycle_end_1_8 -10000 mix_cycle_used_1_8 <= +0
 mix_cycle_duration_1_8: +1 mix_cycle_end_1_8 -1 mix_cycle_start_1_8 -70 mix_cycle_used_1_8 = +0
 mix_cycle_sequence_lb_1_8: +1 mix_cycle_start_1_9 -1 mix_cycle_end_1_8 -10000 mix_cycle_used_1_9 >= -9994
 mix_cycle_sequence_ub_1_8: +1 mix_cycle_start_1_9 -1 mix_cycle_end_1_8 +10000 mix_cycle_used_1_8 +10000 mix_cycle_used_1_9
  <= +20006
 mix_cycle_start_cap_1_9: +1 mix_cycle_start_1_9 -10000 mix_cycle_used_1_9 <= +0
 mix_cycle_end_cap_1_9: +1 mix_cycle_end_1_9 -10000 mix_cycle_used_1_9 <= +0
 mix_cycle_duration_1_9: +1 mix_cycle_end_1_9 -1 mix_cycle_start_1_9 -70 mix_cycle_used_1_9 = +0
 mix_cycle_sequence_lb_1_9: +1 mix_cycle_start_1_10 -1 mix_cycle_end_1_9 -10000 mix_cycle_used_1_10 >= -9994
 mix_cycle_sequence_ub_1_9: +1 mix_cycle_start_1_10 -1 mix_cycle_end_1_9 +10000 mix_cycle_used_1_9 +10000 mix_cycle_used_1_10
  <= +20006
 mix_cycle_start_cap_1_10: +1 mix_cycle_start_1_10 -10000 mix_cycle_used_1_10 <= +0
 mix_cycle_end_cap_1_10: +1 mix_cycle_end_1_10 -10000 mix_cycle_used_1_10 <= +0
 mix_cycle_duration_1_10: +1 mix_cycle_end_1_10 -1 mix_cycle_start_1_10 -70 mix_cycle_used_1_10 = +0
 mix_cycle_sequence_lb_1_10: +1 mix_cycle_start_1_11 -1 mix_cycle_end_1_10 -10000 mix_cycle_used_1_11
  >= -9994
 mix_cycle_sequence_ub_1_10: +1 mix_cycle_start_1_11 -1 mix_cycle_end_1_10 +10000 mix_cycle_used_1_10
  +10000 mix_cycle_used_1_11 <= +20006
 mix_cycle_start_cap_1_11: +1 mix_cycle_start_1_11 -10000 mix_cycle_used_1_11 <= +0
 mix_cycle_end_cap_1_11: +1 mix_cycle_end_1_11 -10000 mix_cycle_used_1_11 <= +0
 mix_cycle_duration_1_11: +1 mix_cycle_end_1_11 -1 mix_cycle_start_1_11 -70 mix_cycle_used_1_11 = +0
 mix_block_end_cap_1: +1 mix_block_end_1 -10000 mix_active_1 <= +0
 mix_block_end_lb_1_1: +1 mix_block_end_1 -1 mix_cycle_end_1_1 -10000 mix_last_cycle_1_1 >= -10000
 mix_block_end_ub_1_1: +1 mix_block_end_1 -1 mix_cycle_end_1_1 +10000 mix_last_cycle_1_1 <= +10000
 mix_block_end_lb_1_2: +1 mix_block_end_1 -1 mix_cycle_end_1_2 -10000 mix_last_cycle_1_2 >= -10000
 mix_block_end_ub_1_2: +1 mix_block_end_1 -1 mix_cycle_end_1_2 +10000 mix_last_cycle_1_2 <= +10000
 mix_block_end_lb_1_3: +1 mix_block_end_1 -1 mix_cycle_end_1_3 -10000 mix_last_cycle_1_3 >= -10000
 mix_block_end_ub_1_3: +1 mix_block_end_1 -1 mix_cycle_end_1_3 +10000 mix_last_cycle_1_3 <= +10000
 mix_block_end_lb_1_4: +1 mix_block_end_1 -1 mix_cycle_end_1_4 -10000 mix_last_cycle_1_4 >= -10000
 mix_block_end_ub_1_4: +1 mix_block_end_1 -1 mix_cycle_end_1_4 +10000 mix_last_cycle_1_4 <= +10000
 mix_block_end_lb_1_5: +1 mix_block_end_1 -1 mix_cycle_end_1_5 -10000 mix_last_cycle_1_5 >= -10000
 mix_block_end_ub_1_5: +1 mix_block_end_1 -1 mix_cycle_end_1_5 +10000 mix_last_cycle_1_5 <= +10000
 mix_block_end_lb_1_6: +1 mix_block_end_1 -1 mix_cycle_end_1_6 -10000 mix_last_cycle_1_6 >= -10000
 mix_block_end_ub_1_6: +1 mix_block_end_1 -1 mix_cycle_end_1_6 +10000 mix_last_cycle_1_6 <= +10000
 mix_block_end_lb_1_7: +1 mix_block_end_1 -1 mix_cycle_end_1_7 -10000 mix_last_cycle_1_7 >= -10000
 mix_block_end_ub_1_7: +1 mix_block_end_1 -1 mix_cycle_end_1_7 +10000 mix_last_cycle_1_7 <= +10000
 mix_block_end_lb_1_8: +1 mix_block_end_1 -1 mix_cycle_end_1_8 -10000 mix_last_cycle_1_8 >= -10000
 mix_block_end_ub_1_8: +1 mix_block_end_1 -1 mix_cycle_end_1_8 +10000 mix_last_cycle_1_8 <= +10000
 mix_block_end_lb_1_9: +1 mix_block_end_1 -1 mix_cycle_end_1_9 -10000 mix_last_cycle_1_9 >= -10000
 mix_block_end_ub_1_9: +1 mix_block_end_1 -1 mix_cycle_end_1_9 +10000 mix_last_cycle_1_9 <= +10000
 mix_block_end_lb_1_10: +1 mix_block_end_1 -1 mix_cycle_end_1_10 -10000 mix_last_cycle_1_10 >= -10000
 mix_block_end_ub_1_10: +1 mix_block_end_1 -1 mix_cycle_end_1_10 +10000 mix_last_cycle_1_10 <= +10000
 mix_block_end_lb_1_11: +1 mix_block_end_1 -1 mix_cycle_end_1_11 -10000 mix_last_cycle_1_11 >= -10000
 mix_block_end_ub_1_11: +1 mix_block_end_1 -1 mix_cycle_end_1_11 +10000 mix_last_cycle_1_11 <= +10000
 full_before_mix_1_1: +1 full_end_1_1 -1 mix_cycle_start_1_1 -10000 full_after_mix_1_1 +10000 full_slot_used_1_1
  +10000 mix_active_1 <= +19994
 full_after_mix_1_1: +1 full_start_1_1 -1 mix_block_end_1 -10000 full_after_mix_1_1 -10000 full_slot_used_1_1
  -10000 mix_active_1 >= -29994
 full_before_mix_1_2: +1 full_end_1_2 -1 mix_cycle_start_1_1 -10000 full_after_mix_1_2 +10000 full_slot_used_1_2
  +10000 mix_active_1 <= +19994
 full_after_mix_1_2: +1 full_start_1_2 -1 mix_block_end_1 -10000 full_after_mix_1_2 -10000 full_slot_used_1_2
  -10000 mix_active_1 >= -29994
 full_before_mix_1_3: +1 full_end_1_3 -1 mix_cycle_start_1_1 -10000 full_after_mix_1_3 +10000 full_slot_used_1_3
  +10000 mix_active_1 <= +19994
 full_after_mix_1_3: +1 full_start_1_3 -1 mix_block_end_1 -10000 full_after_mix_1_3 -10000 full_slot_used_1_3
  -10000 mix_active_1 >= -29994
 full_before_mix_1_4: +1 full_end_1_4 -1 mix_cycle_start_1_1 -10000 full_after_mix_1_4 +10000 full_slot_used_1_4
  +10000 mix_active_1 <= +19994
 full_after_mix_1_4: +1 full_start_1_4 -1 mix_block_end_1 -10000 full_after_mix_1_4 -10000 full_slot_used_1_4
  -10000 mix_active_1 >= -29994
 full_before_mix_1_5: +1 full_end_1_5 -1 mix_cycle_start_1_1 -10000 full_after_mix_1_5 +10000 full_slot_used_1_5
  +10000 mix_active_1 <= +19994
 full_after_mix_1_5: +1 full_start_1_5 -1 mix_block_end_1 -10000 full_after_mix_1_5 -10000 full_slot_used_1_5
  -10000 mix_active_1 >= -29994
 full_before_mix_1_6: +1 full_end_1_6 -1 mix_cycle_start_1_1 -10000 full_after_mix_1_6 +10000 full_slot_used_1_6
  +10000 mix_active_1 <= +19994
 full_after_mix_1_6: +1 full_start_1_6 -1 mix_block_end_1 -10000 full_after_mix_1_6 -10000 full_slot_used_1_6
  -10000 mix_active_1 >= -29994
 full_before_mix_1_7: +1 full_end_1_7 -1 mix_cycle_start_1_1 -10000 full_after_mix_1_7 +10000 full_slot_used_1_7
  +10000 mix_active_1 <= +19994
 full_after_mix_1_7: +1 full_start_1_7 -1 mix_block_end_1 -10000 full_after_mix_1_7 -10000 full_slot_used_1_7
  -10000 mix_active_1 >= -29994
 full_before_mix_1_8: +1 full_end_1_8 -1 mix_cycle_start_1_1 -10000 full_after_mix_1_8 +10000 full_slot_used_1_8
  +10000 mix_active_1 <= +19994
 full_after_mix_1_8: +1 full_start_1_8 -1 mix_block_end_1 -10000 full_after_mix_1_8 -10000 full_slot_used_1_8
  -10000 mix_active_1 >= -29994
 full_before_mix_1_9: +1 full_end_1_9 -1 mix_cycle_start_1_1 -10000 full_after_mix_1_9 +10000 full_slot_used_1_9
  +10000 mix_active_1 <= +19994
 full_after_mix_1_9: +1 full_start_1_9 -1 mix_block_end_1 -10000 full_after_mix_1_9 -10000 full_slot_used_1_9
  -10000 mix_active_1 >= -29994
 full_before_mix_1_10: +1 full_end_1_10 -1 mix_cycle_start_1_1 -10000 full_after_mix_1_10 +10000 full_slot_used_1_10
  +10000 mix_active_1 <= +19994
 full_after_mix_1_10: +1 full_start_1_10 -1 mix_block_end_1 -10000 full_after_mix_1_10 -10000 full_slot_used_1_10
  -10000 mix_active_1 >= -29994
 full_start_cap_2_1: +1 full_start_2_1 -10000 full_slot_used_2_1 <= +0
 full_end_cap_2_1: +1 full_end_2_1 -10000 full_slot_used_2_1 <= +0
 full_duration_2_1: +1 full_end_2_1 -1 full_start_2_1 -120 full_slot_used_2_1 = +0
 full_sequence_lb_2_1: +1 full_start_2_2 -1 full_end_2_1 -10000 full_slot_used_2_1 -10000 full_slot_used_2_2
  >= -19994
 full_start_cap_2_2: +1 full_start_2_2 -10000 full_slot_used_2_2 <= +0
 full_end_cap_2_2: +1 full_end_2_2 -10000 full_slot_used_2_2 <= +0
 full_duration_2_2: +1 full_end_2_2 -1 full_start_2_2 -120 full_slot_used_2_2 = +0
 full_sequence_lb_2_2: +1 full_start_2_3 -1 full_end_2_2 -10000 full_slot_used_2_2 -10000 full_slot_used_2_3
  >= -19994
 full_start_cap_2_3: +1 full_start_2_3 -10000 full_slot_used_2_3 <= +0
 full_end_cap_2_3: +1 full_end_2_3 -10000 full_slot_used_2_3 <= +0
 full_duration_2_3: +1 full_end_2_3 -1 full_start_2_3 -120 full_slot_used_2_3 = +0
 full_sequence_lb_2_3: +1 full_start_2_4 -1 full_end_2_3 -10000 full_slot_used_2_3 -10000 full_slot_used_2_4
  >= -19994
 full_start_cap_2_4: +1 full_start_2_4 -10000 full_slot_used_2_4 <= +0
 full_end_cap_2_4: +1 full_end_2_4 -10000 full_slot_used_2_4 <= +0
 full_duration_2_4: +1 full_end_2_4 -1 full_start_2_4 -120 full_slot_used_2_4 = +0
 full_sequence_lb_2_4: +1 full_start_2_5 -1 full_end_2_4 -10000 full_slot_used_2_4 -10000 full_slot_used_2_5
  >= -19994
 full_start_cap_2_5: +1 full_start_2_5 -10000 full_slot_used_2_5 <= +0
 full_end_cap_2_5: +1 full_end_2_5 -10000 full_slot_used_2_5 <= +0
 full_duration_2_5: +1 full_end_2_5 -1 full_start_2_5 -120 full_slot_used_2_5 = +0
 full_sequence_lb_2_5: +1 full_start_2_6 -1 full_end_2_5 -10000 full_slot_used_2_5 -10000 full_slot_used_2_6
  >= -19994
 full_start_cap_2_6: +1 full_start_2_6 -10000 full_slot_used_2_6 <= +0
 full_end_cap_2_6: +1 full_end_2_6 -10000 full_slot_used_2_6 <= +0
 full_duration_2_6: +1 full_end_2_6 -1 full_start_2_6 -120 full_slot_used_2_6 = +0
 full_sequence_lb_2_6: +1 full_start_2_7 -1 full_end_2_6 -10000 full_slot_used_2_6 -10000 full_slot_used_2_7
  >= -19994
 full_start_cap_2_7: +1 full_start_2_7 -10000 full_slot_used_2_7 <= +0
 full_end_cap_2_7: +1 full_end_2_7 -10000 full_slot_used_2_7 <= +0
 full_duration_2_7: +1 full_end_2_7 -1 full_start_2_7 -120 full_slot_used_2_7 = +0
 full_sequence_lb_2_7: +1 full_start_2_8 -1 full_end_2_7 -10000 full_slot_used_2_7 -10000 full_slot_used_2_8
  >= -19994
 full_start_cap_2_8: +1 full_start_2_8 -10000 full_slot_used_2_8 <= +0
 full_end_cap_2_8: +1 full_end_2_8 -10000 full_slot_used_2_8 <= +0
 full_duration_2_8: +1 full_end_2_8 -1 full_start_2_8 -120 full_slot_used_2_8 = +0
 full_sequence_lb_2_8: +1 full_start_2_9 -1 full_end_2_8 -10000 full_slot_used_2_8 -10000 full_slot_used_2_9
  >= -19994
 full_start_cap_2_9: +1 full_start_2_9 -10000 full_slot_used_2_9 <= +0
 full_end_cap_2_9: +1 full_end_2_9 -10000 full_slot_used_2_9 <= +0
 full_duration_2_9: +1 full_end_2_9 -1 full_start_2_9 -120 full_slot_used_2_9 = +0
 full_sequence_lb_2_9: +1 full_start_2_10 -1 full_end_2_9 -10000 full_slot_used_2_9 -10000 full_slot_used_2_10
  >= -19994
 full_start_cap_2_10: +1 full_start_2_10 -10000 full_slot_used_2_10 <= +0
 full_end_cap_2_10: +1 full_end_2_10 -10000 full_slot_used_2_10 <= +0
 full_duration_2_10: +1 full_end_2_10 -1 full_start_2_10 -120 full_slot_used_2_10 = +0
 mix_cycle_start_cap_2_1: +1 mix_cycle_start_2_1 -10000 mix_cycle_used_2_1 <= +0
 mix_cycle_end_cap_2_1: +1 mix_cycle_end_2_1 -10000 mix_cycle_used_2_1 <= +0
 mix_cycle_duration_2_1: +1 mix_cycle_end_2_1 -1 mix_cycle_start_2_1 -70 mix_cycle_used_2_1 = +0
 mix_cycle_sequence_lb_2_1: +1 mix_cycle_start_2_2 -1 mix_cycle_end_2_1 -10000 mix_cycle_used_2_2 >= -9994
 mix_cycle_sequence_ub_2_1: +1 mix_cycle_start_2_2 -1 mix_cycle_end_2_1 +10000 mix_cycle_used_2_1 +10000 mix_cycle_used_2_2
  <= +20006
 mix_cycle_start_cap_2_2: +1 mix_cycle_start_2_2 -10000 mix_cycle_used_2_2 <= +0
 mix_cycle_end_cap_2_2: +1 mix_cycle_end_2_2 -10000 mix_cycle_used_2_2 <= +0
 mix_cycle_duration_2_2: +1 mix_cycle_end_2_2 -1 mix_cycle_start_2_2 -70 mix_cycle_used_2_2 = +0
 mix_cycle_sequence_lb_2_2: +1 mix_cycle_start_2_3 -1 mix_cycle_end_2_2 -10000 mix_cycle_used_2_3 >= -9994
 mix_cycle_sequence_ub_2_2: +1 mix_cycle_start_2_3 -1 mix_cycle_end_2_2 +10000 mix_cycle_used_2_2 +10000 mix_cycle_used_2_3
  <= +20006
 mix_cycle_start_cap_2_3: +1 mix_cycle_start_2_3 -10000 mix_cycle_used_2_3 <= +0
 mix_cycle_end_cap_2_3: +1 mix_cycle_end_2_3 -10000 mix_cycle_used_2_3 <= +0
 mix_cycle_duration_2_3: +1 mix_cycle_end_2_3 -1 mix_cycle_start_2_3 -70 mix_cycle_used_2_3 = +0
 mix_cycle_sequence_lb_2_3: +1 mix_cycle_start_2_4 -1 mix_cycle_end_2_3 -10000 mix_cycle_used_2_4 >= -9994
 mix_cycle_sequence_ub_2_3: +1 mix_cycle_start_2_4 -1 mix_cycle_end_2_3 +10000 mix_cycle_used_2_3 +10000 mix_cycle_used_2_4
  <= +20006
 mix_cycle_start_cap_2_4: +1 mix_cycle_start_2_4 -10000 mix_cycle_used_2_4 <= +0
 mix_cycle_end_cap_2_4: +1 mix_cycle_end_2_4 -10000 mix_cycle_used_2_4 <= +0
 mix_cycle_duration_2_4: +1 mix_cycle_end_2_4 -1 mix_cycle_start_2_4 -70 mix_cycle_used_2_4 = +0
 mix_cycle_sequence_lb_2_4: +1 mix_cycle_start_2_5 -1 mix_cycle_end_2_4 -10000 mix_cycle_used_2_5 >= -9994
 mix_cycle_sequence_ub_2_4: +1 mix_cycle_start_2_5 -1 mix_cycle_end_2_4 +10000 mix_cycle_used_2_4 +10000 mix_cycle_used_2_5
  <= +20006
 mix_cycle_start_cap_2_5: +1 mix_cycle_start_2_5 -10000 mix_cycle_used_2_5 <= +0
 mix_cycle_end_cap_2_5: +1 mix_cycle_end_2_5 -10000 mix_cycle_used_2_5 <= +0
 mix_cycle_duration_2_5: +1 mix_cycle_end_2_5 -1 mix_cycle_start_2_5 -70 mix_cycle_used_2_5 = +0
 mix_cycle_sequence_lb_2_5: +1 mix_cycle_start_2_6 -1 mix_cycle_end_2_5 -10000 mix_cycle_used_2_6 >= -9994
 mix_cycle_sequence_ub_2_5: +1 mix_cycle_start_2_6 -1 mix_cycle_end_2_5 +10000 mix_cycle_used_2_5 +10000 mix_cycle_used_2_6
  <= +20006
 mix_cycle_start_cap_2_6: +1 mix_cycle_start_2_6 -10000 mix_cycle_used_2_6 <= +0
 mix_cycle_end_cap_2_6: +1 mix_cycle_end_2_6 -10000 mix_cycle_used_2_6 <= +0
 mix_cycle_duration_2_6: +1 mix_cycle_end_2_6 -1 mix_cycle_start_2_6 -70 mix_cycle_used_2_6 = +0
 mix_cycle_sequence_lb_2_6: +1 mix_cycle_start_2_7 -1 mix_cycle_end_2_6 -10000 mix_cycle_used_2_7 >= -9994
 mix_cycle_sequence_ub_2_6: +1 mix_cycle_start_2_7 -1 mix_cycle_end_2_6 +10000 mix_cycle_used_2_6 +10000 mix_cycle_used_2_7
  <= +20006
 mix_cycle_start_cap_2_7: +1 mix_cycle_start_2_7 -10000 mix_cycle_used_2_7 <= +0
 mix_cycle_end_cap_2_7: +1 mix_cycle_end_2_7 -10000 mix_cycle_used_2_7 <= +0
 mix_cycle_duration_2_7: +1 mix_cycle_end_2_7 -1 mix_cycle_start_2_7 -70 mix_cycle_used_2_7 = +0
 mix_cycle_sequence_lb_2_7: +1 mix_cycle_start_2_8 -1 mix_cycle_end_2_7 -10000 mix_cycle_used_2_8 >= -9994
 mix_cycle_sequence_ub_2_7: +1 mix_cycle_start_2_8 -1 mix_cycle_end_2_7 +10000 mix_cycle_used_2_7 +10000 mix_cycle_used_2_8
  <= +20006
 mix_cycle_start_cap_2_8: +1 mix_cycle_start_2_8 -10000 mix_cycle_used_2_8 <= +0
 mix_cycle_end_cap_2_8: +1 mix_cycle_end_2_8 -10000 mix_cycle_used_2_8 <= +0
 mix_cycle_duration_2_8: +1 mix_cycle_end_2_8 -1 mix_cycle_start_2_8 -70 mix_cycle_used_2_8 = +0
 mix_cycle_sequence_lb_2_8: +1 mix_cycle_start_2_9 -1 mix_cycle_end_2_8 -10000 mix_cycle_used_2_9 >= -9994
 mix_cycle_sequence_ub_2_8: +1 mix_cycle_start_2_9 -1 mix_cycle_end_2_8 +10000 mix_cycle_used_2_8 +10000 mix_cycle_used_2_9
  <= +20006
 mix_cycle_start_cap_2_9: +1 mix_cycle_start_2_9 -10000 mix_cycle_used_2_9 <= +0
 mix_cycle_end_cap_2_9: +1 mix_cycle_end_2_9 -10000 mix_cycle_used_2_9 <= +0
 mix_cycle_duration_2_9: +1 mix_cycle_end_2_9 -1 mix_cycle_start_2_9 -70 mix_cycle_used_2_9 = +0
 mix_cycle_sequence_lb_2_9: +1 mix_cycle_start_2_10 -1 mix_cycle_end_2_9 -10000 mix_cycle_used_2_10 >= -9994
 mix_cycle_sequence_ub_2_9: +1 mix_cycle_start_2_10 -1 mix_cycle_end_2_9 +10000 mix_cycle_used_2_9 +10000 mix_cycle_used_2_10
  <= +20006
 mix_cycle_start_cap_2_10: +1 mix_cycle_start_2_10 -10000 mix_cycle_used_2_10 <= +0
 mix_cycle_end_cap_2_10: +1 mix_cycle_end_2_10 -10000 mix_cycle_used_2_10 <= +0
 mix_cycle_duration_2_10: +1 mix_cycle_end_2_10 -1 mix_cycle_start_2_10 -70 mix_cycle_used_2_10 = +0
 mix_cycle_sequence_lb_2_10: +1 mix_cycle_start_2_11 -1 mix_cycle_end_2_10 -10000 mix_cycle_used_2_11
  >= -9994
 mix_cycle_sequence_ub_2_10: +1 mix_cycle_start_2_11 -1 mix_cycle_end_2_10 +10000 mix_cycle_used_2_10
  +10000 mix_cycle_used_2_11 <= +20006
 mix_cycle_start_cap_2_11: +1 mix_cycle_start_2_11 -10000 mix_cycle_used_2_11 <= +0
 mix_cycle_end_cap_2_11: +1 mix_cycle_end_2_11 -10000 mix_cycle_used_2_11 <= +0
 mix_cycle_duration_2_11: +1 mix_cycle_end_2_11 -1 mix_cycle_start_2_11 -70 mix_cycle_used_2_11 = +0
 mix_block_end_cap_2: +1 mix_block_end_2 -10000 mix_active_2 <= +0
 mix_block_end_lb_2_1: +1 mix_block_end_2 -1 mix_cycle_end_2_1 -10000 mix_last_cycle_2_1 >= -10000
 mix_block_end_ub_2_1: +1 mix_block_end_2 -1 mix_cycle_end_2_1 +10000 mix_last_cycle_2_1 <= +10000
 mix_block_end_lb_2_2: +1 mix_block_end_2 -1 mix_cycle_end_2_2 -10000 mix_last_cycle_2_2 >= -10000
 mix_block_end_ub_2_2: +1 mix_block_end_2 -1 mix_cycle_end_2_2 +10000 mix_last_cycle_2_2 <= +10000
 mix_block_end_lb_2_3: +1 mix_block_end_2 -1 mix_cycle_end_2_3 -10000 mix_last_cycle_2_3 >= -10000
 mix_block_end_ub_2_3: +1 mix_block_end_2 -1 mix_cycle_end_2_3 +10000 mix_last_cycle_2_3 <= +10000
 mix_block_end_lb_2_4: +1 mix_block_end_2 -1 mix_cycle_end_2_4 -10000 mix_last_cycle_2_4 >= -10000
 mix_block_end_ub_2_4: +1 mix_block_end_2 -1 mix_cycle_end_2_4 +10000 mix_last_cycle_2_4 <= +10000
 mix_block_end_lb_2_5: +1 mix_block_end_2 -1 mix_cycle_end_2_5 -10000 mix_last_cycle_2_5 >= -10000
 mix_block_end_ub_2_5: +1 mix_block_end_2 -1 mix_cycle_end_2_5 +10000 mix_last_cycle_2_5 <= +10000
 mix_block_end_lb_2_6: +1 mix_block_end_2 -1 mix_cycle_end_2_6 -10000 mix_last_cycle_2_6 >= -10000
 mix_block_end_ub_2_6: +1 mix_block_end_2 -1 mix_cycle_end_2_6 +10000 mix_last_cycle_2_6 <= +10000
 mix_block_end_lb_2_7: +1 mix_block_end_2 -1 mix_cycle_end_2_7 -10000 mix_last_cycle_2_7 >= -10000
 mix_block_end_ub_2_7: +1 mix_block_end_2 -1 mix_cycle_end_2_7 +10000 mix_last_cycle_2_7 <= +10000
 mix_block_end_lb_2_8: +1 mix_block_end_2 -1 mix_cycle_end_2_8 -10000 mix_last_cycle_2_8 >= -10000
 mix_block_end_ub_2_8: +1 mix_block_end_2 -1 mix_cycle_end_2_8 +10000 mix_last_cycle_2_8 <= +10000
 mix_block_end_lb_2_9: +1 mix_block_end_2 -1 mix_cycle_end_2_9 -10000 mix_last_cycle_2_9 >= -10000
 mix_block_end_ub_2_9: +1 mix_block_end_2 -1 mix_cycle_end_2_9 +10000 mix_last_cycle_2_9 <= +10000
 mix_block_end_lb_2_10: +1 mix_block_end_2 -1 mix_cycle_end_2_10 -10000 mix_last_cycle_2_10 >= -10000
 mix_block_end_ub_2_10: +1 mix_block_end_2 -1 mix_cycle_end_2_10 +10000 mix_last_cycle_2_10 <= +10000
 mix_block_end_lb_2_11: +1 mix_block_end_2 -1 mix_cycle_end_2_11 -10000 mix_last_cycle_2_11 >= -10000
 mix_block_end_ub_2_11: +1 mix_block_end_2 -1 mix_cycle_end_2_11 +10000 mix_last_cycle_2_11 <= +10000
 full_before_mix_2_1: +1 full_end_2_1 -1 mix_cycle_start_2_1 -10000 full_after_mix_2_1 +10000 full_slot_used_2_1
  +10000 mix_active_2 <= +19994
 full_after_mix_2_1: +1 full_start_2_1 -1 mix_block_end_2 -10000 full_after_mix_2_1 -10000 full_slot_used_2_1
  -10000 mix_active_2 >= -29994
 full_before_mix_2_2: +1 full_end_2_2 -1 mix_cycle_start_2_1 -10000 full_after_mix_2_2 +10000 full_slot_used_2_2
  +10000 mix_active_2 <= +19994
 full_after_mix_2_2: +1 full_start_2_2 -1 mix_block_end_2 -10000 full_after_mix_2_2 -10000 full_slot_used_2_2
  -10000 mix_active_2 >= -29994
 full_before_mix_2_3: +1 full_end_2_3 -1 mix_cycle_start_2_1 -10000 full_after_mix_2_3 +10000 full_slot_used_2_3
  +10000 mix_active_2 <= +19994
 full_after_mix_2_3: +1 full_start_2_3 -1 mix_block_end_2 -10000 full_after_mix_2_3 -10000 full_slot_used_2_3
  -10000 mix_active_2 >= -29994
 full_before_mix_2_4: +1 full_end_2_4 -1 mix_cycle_start_2_1 -10000 full_after_mix_2_4 +10000 full_slot_used_2_4
  +10000 mix_active_2 <= +19994
 full_after_mix_2_4: +1 full_start_2_4 -1 mix_block_end_2 -10000 full_after_mix_2_4 -10000 full_slot_used_2_4
  -10000 mix_active_2 >= -29994
 full_before_mix_2_5: +1 full_end_2_5 -1 mix_cycle_start_2_1 -10000 full_after_mix_2_5 +10000 full_slot_used_2_5
  +10000 mix_active_2 <= +19994
 full_after_mix_2_5: +1 full_start_2_5 -1 mix_block_end_2 -10000 full_after_mix_2_5 -10000 full_slot_used_2_5
  -10000 mix_active_2 >= -29994
 full_before_mix_2_6: +1 full_end_2_6 -1 mix_cycle_start_2_1 -10000 full_after_mix_2_6 +10000 full_slot_used_2_6
  +10000 mix_active_2 <= +19994
 full_after_mix_2_6: +1 full_start_2_6 -1 mix_block_end_2 -10000 full_after_mix_2_6 -10000 full_slot_used_2_6
  -10000 mix_active_2 >= -29994
 full_before_mix_2_7: +1 full_end_2_7 -1 mix_cycle_start_2_1 -10000 full_after_mix_2_7 +10000 full_slot_used_2_7
  +10000 mix_active_2 <= +19994
 full_after_mix_2_7: +1 full_start_2_7 -1 mix_block_end_2 -10000 full_after_mix_2_7 -10000 full_slot_used_2_7
  -10000 mix_active_2 >= -29994
 full_before_mix_2_8: +1 full_end_2_8 -1 mix_cycle_start_2_1 -10000 full_after_mix_2_8 +10000 full_slot_used_2_8
  +10000 mix_active_2 <= +19994
 full_after_mix_2_8: +1 full_start_2_8 -1 mix_block_end_2 -10000 full_after_mix_2_8 -10000 full_slot_used_2_8
  -10000 mix_active_2 >= -29994
 full_before_mix_2_9: +1 full_end_2_9 -1 mix_cycle_start_2_1 -10000 full_after_mix_2_9 +10000 full_slot_used_2_9
  +10000 mix_active_2 <= +19994
 full_after_mix_2_9: +1 full_start_2_9 -1 mix_block_end_2 -10000 full_after_mix_2_9 -10000 full_slot_used_2_9
  -10000 mix_active_2 >= -29994
 full_before_mix_2_10: +1 full_end_2_10 -1 mix_cycle_start_2_1 -10000 full_after_mix_2_10 +10000 full_slot_used_2_10
  +10000 mix_active_2 <= +19994
 full_after_mix_2_10: +1 full_start_2_10 -1 mix_block_end_2 -10000 full_after_mix_2_10 -10000 full_slot_used_2_10
  -10000 mix_active_2 >= -29994
 pair_full_lb_2_1_1: +1 pair_completion_2 -1 full_end_1_1 -10000 assign_full_2_1_1 >= -10000
 pair_full_ub_2_1_1: +1 pair_completion_2 -1 full_end_1_1 +10000 assign_full_2_1_1 <= +10000
 pair_full_lb_2_1_2: +1 pair_completion_2 -1 full_end_1_2 -10000 assign_full_2_1_2 >= -10000
 pair_full_ub_2_1_2: +1 pair_completion_2 -1 full_end_1_2 +10000 assign_full_2_1_2 <= +10000
 pair_full_lb_2_1_3: +1 pair_completion_2 -1 full_end_1_3 -10000 assign_full_2_1_3 >= -10000
 pair_full_ub_2_1_3: +1 pair_completion_2 -1 full_end_1_3 +10000 assign_full_2_1_3 <= +10000
 pair_full_lb_2_1_4: +1 pair_completion_2 -1 full_end_1_4 -10000 assign_full_2_1_4 >= -10000
 pair_full_ub_2_1_4: +1 pair_completion_2 -1 full_end_1_4 +10000 assign_full_2_1_4 <= +10000
 pair_full_lb_2_1_5: +1 pair_completion_2 -1 full_end_1_5 -10000 assign_full_2_1_5 >= -10000
 pair_full_ub_2_1_5: +1 pair_completion_2 -1 full_end_1_5 +10000 assign_full_2_1_5 <= +10000
 pair_full_lb_2_1_6: +1 pair_completion_2 -1 full_end_1_6 -10000 assign_full_2_1_6 >= -10000
 pair_full_ub_2_1_6: +1 pair_completion_2 -1 full_end_1_6 +10000 assign_full_2_1_6 <= +10000
 pair_full_lb_2_1_7: +1 pair_completion_2 -1 full_end_1_7 -10000 assign_full_2_1_7 >= -10000
 pair_full_ub_2_1_7: +1 pair_completion_2 -1 full_end_1_7 +10000 assign_full_2_1_7 <= +10000
 pair_full_lb_2_1_8: +1 pair_completion_2 -1 full_end_1_8 -10000 assign_full_2_1_8 >= -10000
 pair_full_ub_2_1_8: +1 pair_completion_2 -1 full_end_1_8 +10000 assign_full_2_1_8 <= +10000
 pair_full_lb_2_1_9: +1 pair_completion_2 -1 full_end_1_9 -10000 assign_full_2_1_9 >= -10000
 pair_full_ub_2_1_9: +1 pair_completion_2 -1 full_end_1_9 +10000 assign_full_2_1_9 <= +10000
 pair_full_lb_2_1_10: +1 pair_completion_2 -1 full_end_1_10 -10000 assign_full_2_1_10 >= -10000
 pair_full_ub_2_1_10: +1 pair_completion_2 -1 full_end_1_10 +10000 assign_full_2_1_10 <= +10000
 pair_full_lb_2_2_1: +1 pair_completion_2 -1 full_end_2_1 -10000 assign_full_2_2_1 >= -10000
 pair_full_ub_2_2_1: +1 pair_completion_2 -1 full_end_2_1 +10000 assign_full_2_2_1 <= +10000
 pair_full_lb_2_2_2: +1 pair_completion_2 -1 full_end_2_2 -10000 assign_full_2_2_2 >= -10000
 pair_full_ub_2_2_2: +1 pair_completion_2 -1 full_end_2_2 +10000 assign_full_2_2_2 <= +10000
 pair_full_lb_2_2_3: +1 pair_completion_2 -1 full_end_2_3 -10000 assign_full_2_2_3 >= -10000
 pair_full_ub_2_2_3: +1 pair_completion_2 -1 full_end_2_3 +10000 assign_full_2_2_3 <= +10000
 pair_full_lb_2_2_4: +1 pair_completion_2 -1 full_end_2_4 -10000 assign_full_2_2_4 >= -10000
 pair_full_ub_2_2_4: +1 pair_completion_2 -1 full_end_2_4 +10000 assign_full_2_2_4 <= +10000
 pair_full_lb_2_2_5: +1 pair_completion_2 -1 full_end_2_5 -10000 assign_full_2_2_5 >= -10000
 pair_full_ub_2_2_5: +1 pair_completion_2 -1 full_end_2_5 +10000 assign_full_2_2_5 <= +10000
 pair_full_lb_2_2_6: +1 pair_completion_2 -1 full_end_2_6 -10000 assign_full_2_2_6 >= -10000
 pair_full_ub_2_2_6: +1 pair_completion_2 -1 full_end_2_6 +10000 assign_full_2_2_6 <= +10000
 pair_full_lb_2_2_7: +1 pair_completion_2 -1 full_end_2_7 -10000 assign_full_2_2_7 >= -10000
 pair_full_ub_2_2_7: +1 pair_completion_2 -1 full_end_2_7 +10000 assign_full_2_2_7 <= +10000
 pair_full_lb_2_2_8: +1 pair_completion_2 -1 full_end_2_8 -10000 assign_full_2_2_8 >= -10000
 pair_full_ub_2_2_8: +1 pair_completion_2 -1 full_end_2_8 +10000 assign_full_2_2_8 <= +10000
 pair_full_lb_2_2_9: +1 pair_completion_2 -1 full_end_2_9 -10000 assign_full_2_2_9 >= -10000
 pair_full_ub_2_2_9: +1 pair_completion_2 -1 full_end_2_9 +10000 assign_full_2_2_9 <= +10000
 pair_full_lb_2_2_10: +1 pair_completion_2 -1 full_end_2_10 -10000 assign_full_2_2_10 >= -10000
 pair_full_ub_2_2_10: +1 pair_completion_2 -1 full_end_2_10 +10000 assign_full_2_2_10 <= +10000
 pair_full_lb_4_1_1: +1 pair_completion_4 -1 full_end_1_1 -10000 assign_full_4_1_1 >= -10000
 pair_full_ub_4_1_1: +1 pair_completion_4 -1 full_end_1_1 +10000 assign_full_4_1_1 <= +10000
 pair_full_lb_4_1_2: +1 pair_completion_4 -1 full_end_1_2 -10000 assign_full_4_1_2 >= -10000
 pair_full_ub_4_1_2: +1 pair_completion_4 -1 full_end_1_2 +10000 assign_full_4_1_2 <= +10000
 pair_full_lb_4_1_3: +1 pair_completion_4 -1 full_end_1_3 -10000 assign_full_4_1_3 >= -10000
 pair_full_ub_4_1_3: +1 pair_completion_4 -1 full_end_1_3 +10000 assign_full_4_1_3 <= +10000
 pair_full_lb_4_1_4: +1 pair_completion_4 -1 full_end_1_4 -10000 assign_full_4_1_4 >= -10000
 pair_full_ub_4_1_4: +1 pair_completion_4 -1 full_end_1_4 +10000 assign_full_4_1_4 <= +10000
 pair_full_lb_4_1_5: +1 pair_completion_4 -1 full_end_1_5 -10000 assign_full_4_1_5 >= -10000
 pair_full_ub_4_1_5: +1 pair_completion_4 -1 full_end_1_5 +10000 assign_full_4_1_5 <= +10000
 pair_full_lb_4_1_6: +1 pair_completion_4 -1 full_end_1_6 -10000 assign_full_4_1_6 >= -10000
 pair_full_ub_4_1_6: +1 pair_completion_4 -1 full_end_1_6 +10000 assign_full_4_1_6 <= +10000
 pair_full_lb_4_1_7: +1 pair_completion_4 -1 full_end_1_7 -10000 assign_full_4_1_7 >= -10000
 pair_full_ub_4_1_7: +1 pair_completion_4 -1 full_end_1_7 +10000 assign_full_4_1_7 <= +10000
 pair_full_lb_4_1_8: +1 pair_completion_4 -1 full_end_1_8 -10000 assign_full_4_1_8 >= -10000
 pair_full_ub_4_1_8: +1 pair_completion_4 -1 full_end_1_8 +10000 assign_full_4_1_8 <= +10000
 pair_full_lb_4_1_9: +1 pair_completion_4 -1 full_end_1_9 -10000 assign_full_4_1_9 >= -10000
 pair_full_ub_4_1_9: +1 pair_completion_4 -1 full_end_1_9 +10000 assign_full_4_1_9 <= +10000
 pair_full_lb_4_1_10: +1 pair_completion_4 -1 full_end_1_10 -10000 assign_full_4_1_10 >= -10000
 pair_full_ub_4_1_10: +1 pair_completion_4 -1 full_end_1_10 +10000 assign_full_4_1_10 <= +10000
 pair_full_lb_4_2_1: +1 pair_completion_4 -1 full_end_2_1 -10000 assign_full_4_2_1 >= -10000
 pair_full_ub_4_2_1: +1 pair_completion_4 -1 full_end_2_1 +10000 assign_full_4_2_1 <= +10000
 pair_full_lb_4_2_2: +1 pair_completion_4 -1 full_end_2_2 -10000 assign_full_4_2_2 >= -10000
 pair_full_ub_4_2_2: +1 pair_completion_4 -1 full_end_2_2 +10000 assign_full_4_2_2 <= +10000
 pair_full_lb_4_2_3: +1 pair_completion_4 -1 full_end_2_3 -10000 assign_full_4_2_3 >= -10000
 pair_full_ub_4_2_3: +1 pair_completion_4 -1 full_end_2_3 +10000 assign_full_4_2_3 <= +10000
 pair_full_lb_4_2_4: +1 pair_completion_4 -1 full_end_2_4 -10000 assign_full_4_2_4 >= -10000
 pair_full_ub_4_2_4: +1 pair_completion_4 -1 full_end_2_4 +10000 assign_full_4_2_4 <= +10000
 pair_full_lb_4_2_5: +1 pair_completion_4 -1 full_end_2_5 -10000 assign_full_4_2_5 >= -10000
 pair_full_ub_4_2_5: +1 pair_completion_4 -1 full_end_2_5 +10000 assign_full_4_2_5 <= +10000
 pair_full_lb_4_2_6: +1 pair_completion_4 -1 full_end_2_6 -10000 assign_full_4_2_6 >= -10000
 pair_full_ub_4_2_6: +1 pair_completion_4 -1 full_end_2_6 +10000 assign_full_4_2_6 <= +10000
 pair_full_lb_4_2_7: +1 pair_completion_4 -1 full_end_2_7 -10000 assign_full_4_2_7 >= -10000
 pair_full_ub_4_2_7: +1 pair_completion_4 -1 full_end_2_7 +10000 assign_full_4_2_7 <= +10000
 pair_full_lb_4_2_8: +1 pair_completion_4 -1 full_end_2_8 -10000 assign_full_4_2_8 >= -10000
 pair_full_ub_4_2_8: +1 pair_completion_4 -1 full_end_2_8 +10000 assign_full_4_2_8 <= +10000
 pair_full_lb_4_2_9: +1 pair_completion_4 -1 full_end_2_9 -10000 assign_full_4_2_9 >= -10000
 pair_full_ub_4_2_9: +1 pair_completion_4 -1 full_end_2_9 +10000 assign_full_4_2_9 <= +10000
 pair_full_lb_4_2_10: +1 pair_completion_4 -1 full_end_2_10 -10000 assign_full_4_2_10 >= -10000
 pair_full_ub_4_2_10: +1 pair_completion_4 -1 full_end_2_10 +10000 assign_full_4_2_10 <= +10000
 pair_full_lb_6_1_1: +1 pair_completion_6 -1 full_end_1_1 -10000 assign_full_6_1_1 >= -10000
 pair_full_ub_6_1_1: +1 pair_completion_6 -1 full_end_1_1 +10000 assign_full_6_1_1 <= +10000
 pair_full_lb_6_1_2: +1 pair_completion_6 -1 full_end_1_2 -10000 assign_full_6_1_2 >= -10000
 pair_full_ub_6_1_2: +1 pair_completion_6 -1 full_end_1_2 +10000 assign_full_6_1_2 <= +10000
 pair_full_lb_6_1_3: +1 pair_completion_6 -1 full_end_1_3 -10000 assign_full_6_1_3 >= -10000
 pair_full_ub_6_1_3: +1 pair_completion_6 -1 full_end_1_3 +10000 assign_full_6_1_3 <= +10000
 pair_full_lb_6_1_4: +1 pair_completion_6 -1 full_end_1_4 -10000 assign_full_6_1_4 >= -10000
 pair_full_ub_6_1_4: +1 pair_completion_6 -1 full_end_1_4 +10000 assign_full_6_1_4 <= +10000
 pair_full_lb_6_1_5: +1 pair_completion_6 -1 full_end_1_5 -10000 assign_full_6_1_5 >= -10000
 pair_full_ub_6_1_5: +1 pair_completion_6 -1 full_end_1_5 +10000 assign_full_6_1_5 <= +10000
 pair_full_lb_6_1_6: +1 pair_completion_6 -1 full_end_1_6 -10000 assign_full_6_1_6 >= -10000
 pair_full_ub_6_1_6: +1 pair_completion_6 -1 full_end_1_6 +10000 assign_full_6_1_6 <= +10000
 pair_full_lb_6_1_7: +1 pair_completion_6 -1 full_end_1_7 -10000 assign_full_6_1_7 >= -10000
 pair_full_ub_6_1_7: +1 pair_completion_6 -1 full_end_1_7 +10000 assign_full_6_1_7 <= +10000
 pair_full_lb_6_1_8: +1 pair_completion_6 -1 full_end_1_8 -10000 assign_full_6_1_8 >= -10000
 pair_full_ub_6_1_8: +1 pair_completion_6 -1 full_end_1_8 +10000 assign_full_6_1_8 <= +10000
 pair_full_lb_6_1_9: +1 pair_completion_6 -1 full_end_1_9 -10000 assign_full_6_1_9 >= -10000
 pair_full_ub_6_1_9: +1 pair_completion_6 -1 full_end_1_9 +10000 assign_full_6_1_9 <= +10000
 pair_full_lb_6_1_10: +1 pair_completion_6 -1 full_end_1_10 -10000 assign_full_6_1_10 >= -10000
 pair_full_ub_6_1_10: +1 pair_completion_6 -1 full_end_1_10 +10000 assign_full_6_1_10 <= +10000
 pair_full_lb_6_2_1: +1 pair_completion_6 -1 full_end_2_1 -10000 assign_full_6_2_1 >= -10000
 pair_full_ub_6_2_1: +1 pair_completion_6 -1 full_end_2_1 +10000 assign_full_6_2_1 <= +10000
 pair_full_lb_6_2_2: +1 pair_completion_6 -1 full_end_2_2 -10000 assign_full_6_2_2 >= -10000
 pair_full_ub_6_2_2: +1 pair_completion_6 -1 full_end_2_2 +10000 assign_full_6_2_2 <= +10000
 pair_full_lb_6_2_3: +1 pair_completion_6 -1 full_end_2_3 -10000 assign_full_6_2_3 >= -10000
 pair_full_ub_6_2_3: +1 pair_completion_6 -1 full_end_2_3 +10000 assign_full_6_2_3 <= +10000
 pair_full_lb_6_2_4: +1 pair_completion_6 -1 full_end_2_4 -10000 assign_full_6_2_4 >= -10000
 pair_full_ub_6_2_4: +1 pair_completion_6 -1 full_end_2_4 +10000 assign_full_6_2_4 <= +10000
 pair_full_lb_6_2_5: +1 pair_completion_6 -1 full_end_2_5 -10000 assign_full_6_2_5 >= -10000
 pair_full_ub_6_2_5: +1 pair_completion_6 -1 full_end_2_5 +10000 assign_full_6_2_5 <= +10000
 pair_full_lb_6_2_6: +1 pair_completion_6 -1 full_end_2_6 -10000 assign_full_6_2_6 >= -10000
 pair_full_ub_6_2_6: +1 pair_completion_6 -1 full_end_2_6 +10000 assign_full_6_2_6 <= +10000
 pair_full_lb_6_2_7: +1 pair_completion_6 -1 full_end_2_7 -10000 assign_full_6_2_7 >= -10000
 pair_full_ub_6_2_7: +1 pair_completion_6 -1 full_end_2_7 +10000 assign_full_6_2_7 <= +10000
 pair_full_lb_6_2_8: +1 pair_completion_6 -1 full_end_2_8 -10000 assign_full_6_2_8 >= -10000
 pair_full_ub_6_2_8: +1 pair_completion_6 -1 full_end_2_8 +10000 assign_full_6_2_8 <= +10000
 pair_full_lb_6_2_9: +1 pair_completion_6 -1 full_end_2_9 -10000 assign_full_6_2_9 >= -10000
 pair_full_ub_6_2_9: +1 pair_completion_6 -1 full_end_2_9 +10000 assign_full_6_2_9 <= +10000
 pair_full_lb_6_2_10: +1 pair_completion_6 -1 full_end_2_10 -10000 assign_full_6_2_10 >= -10000
 pair_full_ub_6_2_10: +1 pair_completion_6 -1 full_end_2_10 +10000 assign_full_6_2_10 <= +10000
 pair_full_lb_8_1_1: +1 pair_completion_8 -1 full_end_1_1 -10000 assign_full_8_1_1 >= -10000
 pair_full_ub_8_1_1: +1 pair_completion_8 -1 full_end_1_1 +10000 assign_full_8_1_1 <= +10000
 pair_full_lb_8_1_2: +1 pair_completion_8 -1 full_end_1_2 -10000 assign_full_8_1_2 >= -10000
 pair_full_ub_8_1_2: +1 pair_completion_8 -1 full_end_1_2 +10000 assign_full_8_1_2 <= +10000
 pair_full_lb_8_1_3: +1 pair_completion_8 -1 full_end_1_3 -10000 assign_full_8_1_3 >= -10000
 pair_full_ub_8_1_3: +1 pair_completion_8 -1 full_end_1_3 +10000 assign_full_8_1_3 <= +10000
 pair_full_lb_8_1_4: +1 pair_completion_8 -1 full_end_1_4 -10000 assign_full_8_1_4 >= -10000
 pair_full_ub_8_1_4: +1 pair_completion_8 -1 full_end_1_4 +10000 assign_full_8_1_4 <= +10000
 pair_full_lb_8_1_5: +1 pair_completion_8 -1 full_end_1_5 -10000 assign_full_8_1_5 >= -10000
 pair_full_ub_8_1_5: +1 pair_completion_8 -1 full_end_1_5 +10000 assign_full_8_1_5 <= +10000
 pair_full_lb_8_1_6: +1 pair_completion_8 -1 full_end_1_6 -10000 assign_full_8_1_6 >= -10000
 pair_full_ub_8_1_6: +1 pair_completion_8 -1 full_end_1_6 +10000 assign_full_8_1_6 <= +10000
 pair_full_lb_8_1_7: +1 pair_completion_8 -1 full_end_1_7 -10000 assign_full_8_1_7 >= -10000
 pair_full_ub_8_1_7: +1 pair_completion_8 -1 full_end_1_7 +10000 assign_full_8_1_7 <= +10000
 pair_full_lb_8_1_8: +1 pair_completion_8 -1 full_end_1_8 -10000 assign_full_8_1_8 >= -10000
 pair_full_ub_8_1_8: +1 pair_completion_8 -1 full_end_1_8 +10000 assign_full_8_1_8 <= +10000
 pair_full_lb_8_1_9: +1 pair_completion_8 -1 full_end_1_9 -10000 assign_full_8_1_9 >= -10000
 pair_full_ub_8_1_9: +1 pair_completion_8 -1 full_end_1_9 +10000 assign_full_8_1_9 <= +10000
 pair_full_lb_8_1_10: +1 pair_completion_8 -1 full_end_1_10 -10000 assign_full_8_1_10 >= -10000
 pair_full_ub_8_1_10: +1 pair_completion_8 -1 full_end_1_10 +10000 assign_full_8_1_10 <= +10000
 pair_full_lb_8_2_1: +1 pair_completion_8 -1 full_end_2_1 -10000 assign_full_8_2_1 >= -10000
 pair_full_ub_8_2_1: +1 pair_completion_8 -1 full_end_2_1 +10000 assign_full_8_2_1 <= +10000
 pair_full_lb_8_2_2: +1 pair_completion_8 -1 full_end_2_2 -10000 assign_full_8_2_2 >= -10000
 pair_full_ub_8_2_2: +1 pair_completion_8 -1 full_end_2_2 +10000 assign_full_8_2_2 <= +10000
 pair_full_lb_8_2_3: +1 pair_completion_8 -1 full_end_2_3 -10000 assign_full_8_2_3 >= -10000
 pair_full_ub_8_2_3: +1 pair_completion_8 -1 full_end_2_3 +10000 assign_full_8_2_3 <= +10000
 pair_full_lb_8_2_4: +1 pair_completion_8 -1 full_end_2_4 -10000 assign_full_8_2_4 >= -10000
 pair_full_ub_8_2_4: +1 pair_completion_8 -1 full_end_2_4 +10000 assign_full_8_2_4 <= +10000
 pair_full_lb_8_2_5: +1 pair_completion_8 -1 full_end_2_5 -10000 assign_full_8_2_5 >= -10000
 pair_full_ub_8_2_5: +1 pair_completion_8 -1 full_end_2_5 +10000 assign_full_8_2_5 <= +10000
 pair_full_lb_8_2_6: +1 pair_completion_8 -1 full_end_2_6 -10000 assign_full_8_2_6 >= -10000
 pair_full_ub_8_2_6: +1 pair_completion_8 -1 full_end_2_6 +10000 assign_full_8_2_6 <= +10000
 pair_full_lb_8_2_7: +1 pair_completion_8 -1 full_end_2_7 -10000 assign_full_8_2_7 >= -10000
 pair_full_ub_8_2_7: +1 pair_completion_8 -1 full_end_2_7 +10000 assign_full_8_2_7 <= +10000
 pair_full_lb_8_2_8: +1 pair_completion_8 -1 full_end_2_8 -10000 assign_full_8_2_8 >= -10000
 pair_full_ub_8_2_8: +1 pair_completion_8 -1 full_end_2_8 +10000 assign_full_8_2_8 <= +10000
 pair_full_lb_8_2_9: +1 pair_completion_8 -1 full_end_2_9 -10000 assign_full_8_2_9 >= -10000
 pair_full_ub_8_2_9: +1 pair_completion_8 -1 full_end_2_9 +10000 assign_full_8_2_9 <= +10000
 pair_full_lb_8_2_10: +1 pair_completion_8 -1 full_end_2_10 -10000 assign_full_8_2_10 >= -10000
 pair_full_ub_8_2_10: +1 pair_completion_8 -1 full_end_2_10 +10000 assign_full_8_2_10 <= +10000
 pair_full_lb_10_1_1: +1 pair_completion_10 -1 full_end_1_1 -10000 assign_full_10_1_1 >= -10000
 pair_full_ub_10_1_1: +1 pair_completion_10 -1 full_end_1_1 +10000 assign_full_10_1_1 <= +10000
 pair_full_lb_10_1_2: +1 pair_completion_10 -1 full_end_1_2 -10000 assign_full_10_1_2 >= -10000
 pair_full_ub_10_1_2: +1 pair_completion_10 -1 full_end_1_2 +10000 assign_full_10_1_2 <= +10000
 pair_full_lb_10_1_3: +1 pair_completion_10 -1 full_end_1_3 -10000 assign_full_10_1_3 >= -10000
 pair_full_ub_10_1_3: +1 pair_completion_10 -1 full_end_1_3 +10000 assign_full_10_1_3 <= +10000
 pair_full_lb_10_1_4: +1 pair_completion_10 -1 full_end_1_4 -10000 assign_full_10_1_4 >= -10000
 pair_full_ub_10_1_4: +1 pair_completion_10 -1 full_end_1_4 +10000 assign_full_10_1_4 <= +10000
 pair_full_lb_10_1_5: +1 pair_completion_10 -1 full_end_1_5 -10000 assign_full_10_1_5 >= -10000
 pair_full_ub_10_1_5: +1 pair_completion_10 -1 full_end_1_5 +10000 assign_full_10_1_5 <= +10000
 pair_full_lb_10_1_6: +1 pair_completion_10 -1 full_end_1_6 -10000 assign_full_10_1_6 >= -10000
 pair_full_ub_10_1_6: +1 pair_completion_10 -1 full_end_1_6 +10000 assign_full_10_1_6 <= +10000
 pair_full_lb_10_1_7: +1 pair_completion_10 -1 full_end_1_7 -10000 assign_full_10_1_7 >= -10000
 pair_full_ub_10_1_7: +1 pair_completion_10 -1 full_end_1_7 +10000 assign_full_10_1_7 <= +10000
 pair_full_lb_10_1_8: +1 pair_completion_10 -1 full_end_1_8 -10000 assign_full_10_1_8 >= -10000
 pair_full_ub_10_1_8: +1 pair_completion_10 -1 full_end_1_8 +10000 assign_full_10_1_8 <= +10000
 pair_full_lb_10_1_9: +1 pair_completion_10 -1 full_end_1_9 -10000 assign_full_10_1_9 >= -10000
 pair_full_ub_10_1_9: +1 pair_completion_10 -1 full_end_1_9 +10000 assign_full_10_1_9 <= +10000
 pair_full_lb_10_1_10: +1 pair_completion_10 -1 full_end_1_10 -10000 assign_full_10_1_10 >= -10000
 pair_full_ub_10_1_10: +1 pair_completion_10 -1 full_end_1_10 +10000 assign_full_10_1_10 <= +10000
 pair_full_lb_10_2_1: +1 pair_completion_10 -1 full_end_2_1 -10000 assign_full_10_2_1 >= -10000
 pair_full_ub_10_2_1: +1 pair_completion_10 -1 full_end_2_1 +10000 assign_full_10_2_1 <= +10000
 pair_full_lb_10_2_2: +1 pair_completion_10 -1 full_end_2_2 -10000 assign_full_10_2_2 >= -10000
 pair_full_ub_10_2_2: +1 pair_completion_10 -1 full_end_2_2 +10000 assign_full_10_2_2 <= +10000
 pair_full_lb_10_2_3: +1 pair_completion_10 -1 full_end_2_3 -10000 assign_full_10_2_3 >= -10000
 pair_full_ub_10_2_3: +1 pair_completion_10 -1 full_end_2_3 +10000 assign_full_10_2_3 <= +10000
 pair_full_lb_10_2_4: +1 pair_completion_10 -1 full_end_2_4 -10000 assign_full_10_2_4 >= -10000
 pair_full_ub_10_2_4: +1 pair_completion_10 -1 full_end_2_4 +10000 assign_full_10_2_4 <= +10000
 pair_full_lb_10_2_5: +1 pair_completion_10 -1 full_end_2_5 -10000 assign_full_10_2_5 >= -10000
 pair_full_ub_10_2_5: +1 pair_completion_10 -1 full_end_2_5 +10000 assign_full_10_2_5 <= +10000
 pair_full_lb_10_2_6: +1 pair_completion_10 -1 full_end_2_6 -10000 assign_full_10_2_6 >= -10000
 pair_full_ub_10_2_6: +1 pair_completion_10 -1 full_end_2_6 +10000 assign_full_10_2_6 <= +10000
 pair_full_lb_10_2_7: +1 pair_completion_10 -1 full_end_2_7 -10000 assign_full_10_2_7 >= -10000
 pair_full_ub_10_2_7: +1 pair_completion_10 -1 full_end_2_7 +10000 assign_full_10_2_7 <= +10000
 pair_full_lb_10_2_8: +1 pair_completion_10 -1 full_end_2_8 -10000 assign_full_10_2_8 >= -10000
 pair_full_ub_10_2_8: +1 pair_completion_10 -1 full_end_2_8 +10000 assign_full_10_2_8 <= +10000
 pair_full_lb_10_2_9: +1 pair_completion_10 -1 full_end_2_9 -10000 assign_full_10_2_9 >= -10000
 pair_full_ub_10_2_9: +1 pair_completion_10 -1 full_end_2_9 +10000 assign_full_10_2_9 <= +10000
 pair_full_lb_10_2_10: +1 pair_completion_10 -1 full_end_2_10 -10000 assign_full_10_2_10 >= -10000
 pair_full_ub_10_2_10: +1 pair_completion_10 -1 full_end_2_10 +10000 assign_full_10_2_10 <= +10000
 pair_full_lb_12_1_1: +1 pair_completion_12 -1 full_end_1_1 -10000 assign_full_12_1_1 >= -10000
 pair_full_ub_12_1_1: +1 pair_completion_12 -1 full_end_1_1 +10000 assign_full_12_1_1 <= +10000
 pair_full_lb_12_1_2: +1 pair_completion_12 -1 full_end_1_2 -10000 assign_full_12_1_2 >= -10000
 pair_full_ub_12_1_2: +1 pair_completion_12 -1 full_end_1_2 +10000 assign_full_12_1_2 <= +10000
 pair_full_lb_12_1_3: +1 pair_completion_12 -1 full_end_1_3 -10000 assign_full_12_1_3 >= -10000
 pair_full_ub_12_1_3: +1 pair_completion_12 -1 full_end_1_3 +10000 assign_full_12_1_3 <= +10000
 pair_full_lb_12_1_4: +1 pair_completion_12 -1 full_end_1_4 -10000 assign_full_12_1_4 >= -10000
 pair_full_ub_12_1_4: +1 pair_completion_12 -1 full_end_1_4 +10000 assign_full_12_1_4 <= +10000
 pair_full_lb_12_1_5: +1 pair_completion_12 -1 full_end_1_5 -10000 assign_full_12_1_5 >= -10000
 pair_full_ub_12_1_5: +1 pair_completion_12 -1 full_end_1_5 +10000 assign_full_12_1_5 <= +10000
 pair_full_lb_12_1_6: +1 pair_completion_12 -1 full_end_1_6 -10000 assign_full_12_1_6 >= -10000
 pair_full_ub_12_1_6: +1 pair_completion_12 -1 full_end_1_6 +10000 assign_full_12_1_6 <= +10000
 pair_full_lb_12_1_7: +1 pair_completion_12 -1 full_end_1_7 -10000 assign_full_12_1_7 >= -10000
 pair_full_ub_12_1_7: +1 pair_completion_12 -1 full_end_1_7 +10000 assign_full_12_1_7 <= +10000
 pair_full_lb_12_1_8: +1 pair_completion_12 -1 full_end_1_8 -10000 assign_full_12_1_8 >= -10000
 pair_full_ub_12_1_8: +1 pair_completion_12 -1 full_end_1_8 +10000 assign_full_12_1_8 <= +10000
 pair_full_lb_12_1_9: +1 pair_completion_12 -1 full_end_1_9 -10000 assign_full_12_1_9 >= -10000
 pair_full_ub_12_1_9: +1 pair_completion_12 -1 full_end_1_9 +10000 assign_full_12_1_9 <= +10000
 pair_full_lb_12_1_10: +1 pair_completion_12 -1 full_end_1_10 -10000 assign_full_12_1_10 >= -10000
 pair_full_ub_12_1_10: +1 pair_completion_12 -1 full_end_1_10 +10000 assign_full_12_1_10 <= +10000
 pair_full_lb_12_2_1: +1 pair_completion_12 -1 full_end_2_1 -10000 assign_full_12_2_1 >= -10000
 pair_full_ub_12_2_1: +1 pair_completion_12 -1 full_end_2_1 +10000 assign_full_12_2_1 <= +10000
 pair_full_lb_12_2_2: +1 pair_completion_12 -1 full_end_2_2 -10000 assign_full_12_2_2 >= -10000
 pair_full_ub_12_2_2: +1 pair_completion_12 -1 full_end_2_2 +10000 assign_full_12_2_2 <= +10000
 pair_full_lb_12_2_3: +1 pair_completion_12 -1 full_end_2_3 -10000 assign_full_12_2_3 >= -10000
 pair_full_ub_12_2_3: +1 pair_completion_12 -1 full_end_2_3 +10000 assign_full_12_2_3 <= +10000
 pair_full_lb_12_2_4: +1 pair_completion_12 -1 full_end_2_4 -10000 assign_full_12_2_4 >= -10000
 pair_full_ub_12_2_4: +1 pair_completion_12 -1 full_end_2_4 +10000 assign_full_12_2_4 <= +10000
 pair_full_lb_12_2_5: +1 pair_completion_12 -1 full_end_2_5 -10000 assign_full_12_2_5 >= -10000
 pair_full_ub_12_2_5: +1 pair_completion_12 -1 full_end_2_5 +10000 assign_full_12_2_5 <= +10000
 pair_full_lb_12_2_6: +1 pair_completion_12 -1 full_end_2_6 -10000 assign_full_12_2_6 >= -10000
 pair_full_ub_12_2_6: +1 pair_completion_12 -1 full_end_2_6 +10000 assign_full_12_2_6 <= +10000
 pair_full_lb_12_2_7: +1 pair_completion_12 -1 full_end_2_7 -10000 assign_full_12_2_7 >= -10000
 pair_full_ub_12_2_7: +1 pair_completion_12 -1 full_end_2_7 +10000 assign_full_12_2_7 <= +10000
 pair_full_lb_12_2_8: +1 pair_completion_12 -1 full_end_2_8 -10000 assign_full_12_2_8 >= -10000
 pair_full_ub_12_2_8: +1 pair_completion_12 -1 full_end_2_8 +10000 assign_full_12_2_8 <= +10000
 pair_full_lb_12_2_9: +1 pair_completion_12 -1 full_end_2_9 -10000 assign_full_12_2_9 >= -10000
 pair_full_ub_12_2_9: +1 pair_completion_12 -1 full_end_2_9 +10000 assign_full_12_2_9 <= +10000
 pair_full_lb_12_2_10: +1 pair_completion_12 -1 full_end_2_10 -10000 assign_full_12_2_10 >= -10000
 pair_full_ub_12_2_10: +1 pair_completion_12 -1 full_end_2_10 +10000 assign_full_12_2_10 <= +10000
 pair_full_lb_14_1_1: +1 pair_completion_14 -1 full_end_1_1 -10000 assign_full_14_1_1 >= -10000
 pair_full_ub_14_1_1: +1 pair_completion_14 -1 full_end_1_1 +10000 assign_full_14_1_1 <= +10000
 pair_full_lb_14_1_2: +1 pair_completion_14 -1 full_end_1_2 -10000 assign_full_14_1_2 >= -10000
 pair_full_ub_14_1_2: +1 pair_completion_14 -1 full_end_1_2 +10000 assign_full_14_1_2 <= +10000
 pair_full_lb_14_1_3: +1 pair_completion_14 -1 full_end_1_3 -10000 assign_full_14_1_3 >= -10000
 pair_full_ub_14_1_3: +1 pair_completion_14 -1 full_end_1_3 +10000 assign_full_14_1_3 <= +10000
 pair_full_lb_14_1_4: +1 pair_completion_14 -1 full_end_1_4 -10000 assign_full_14_1_4 >= -10000
 pair_full_ub_14_1_4: +1 pair_completion_14 -1 full_end_1_4 +10000 assign_full_14_1_4 <= +10000
 pair_full_lb_14_1_5: +1 pair_completion_14 -1 full_end_1_5 -10000 assign_full_14_1_5 >= -10000
 pair_full_ub_14_1_5: +1 pair_completion_14 -1 full_end_1_5 +10000 assign_full_14_1_5 <= +10000
 pair_full_lb_14_1_6: +1 pair_completion_14 -1 full_end_1_6 -10000 assign_full_14_1_6 >= -10000
 pair_full_ub_14_1_6: +1 pair_completion_14 -1 full_end_1_6 +10000 assign_full_14_1_6 <= +10000
 pair_full_lb_14_1_7: +1 pair_completion_14 -1 full_end_1_7 -10000 assign_full_14_1_7 >= -10000
 pair_full_ub_14_1_7: +1 pair_completion_14 -1 full_end_1_7 +10000 assign_full_14_1_7 <= +10000
 pair_full_lb_14_1_8: +1 pair_completion_14 -1 full_end_1_8 -10000 assign_full_14_1_8 >= -10000
 pair_full_ub_14_1_8: +1 pair_completion_14 -1 full_end_1_8 +10000 assign_full_14_1_8 <= +10000
 pair_full_lb_14_1_9: +1 pair_completion_14 -1 full_end_1_9 -10000 assign_full_14_1_9 >= -10000
 pair_full_ub_14_1_9: +1 pair_completion_14 -1 full_end_1_9 +10000 assign_full_14_1_9 <= +10000
 pair_full_lb_14_1_10: +1 pair_completion_14 -1 full_end_1_10 -10000 assign_full_14_1_10 >= -10000
 pair_full_ub_14_1_10: +1 pair_completion_14 -1 full_end_1_10 +10000 assign_full_14_1_10 <= +10000
 pair_full_lb_14_2_1: +1 pair_completion_14 -1 full_end_2_1 -10000 assign_full_14_2_1 >= -10000
 pair_full_ub_14_2_1: +1 pair_completion_14 -1 full_end_2_1 +10000 assign_full_14_2_1 <= +10000
 pair_full_lb_14_2_2: +1 pair_completion_14 -1 full_end_2_2 -10000 assign_full_14_2_2 >= -10000
 pair_full_ub_14_2_2: +1 pair_completion_14 -1 full_end_2_2 +10000 assign_full_14_2_2 <= +10000
 pair_full_lb_14_2_3: +1 pair_completion_14 -1 full_end_2_3 -10000 assign_full_14_2_3 >= -10000
 pair_full_ub_14_2_3: +1 pair_completion_14 -1 full_end_2_3 +10000 assign_full_14_2_3 <= +10000
 pair_full_lb_14_2_4: +1 pair_completion_14 -1 full_end_2_4 -10000 assign_full_14_2_4 >= -10000
 pair_full_ub_14_2_4: +1 pair_completion_14 -1 full_end_2_4 +10000 assign_full_14_2_4 <= +10000
 pair_full_lb_14_2_5: +1 pair_completion_14 -1 full_end_2_5 -10000 assign_full_14_2_5 >= -10000
 pair_full_ub_14_2_5: +1 pair_completion_14 -1 full_end_2_5 +10000 assign_full_14_2_5 <= +10000
 pair_full_lb_14_2_6: +1 pair_completion_14 -1 full_end_2_6 -10000 assign_full_14_2_6 >= -10000
 pair_full_ub_14_2_6: +1 pair_completion_14 -1 full_end_2_6 +10000 assign_full_14_2_6 <= +10000
 pair_full_lb_14_2_7: +1 pair_completion_14 -1 full_end_2_7 -10000 assign_full_14_2_7 >= -10000
 pair_full_ub_14_2_7: +1 pair_completion_14 -1 full_end_2_7 +10000 assign_full_14_2_7 <= +10000
 pair_full_lb_14_2_8: +1 pair_completion_14 -1 full_end_2_8 -10000 assign_full_14_2_8 >= -10000
 pair_full_ub_14_2_8: +1 pair_completion_14 -1 full_end_2_8 +10000 assign_full_14_2_8 <= +10000
 pair_full_lb_14_2_9: +1 pair_completion_14 -1 full_end_2_9 -10000 assign_full_14_2_9 >= -10000
 pair_full_ub_14_2_9: +1 pair_completion_14 -1 full_end_2_9 +10000 assign_full_14_2_9 <= +10000
 pair_full_lb_14_2_10: +1 pair_completion_14 -1 full_end_2_10 -10000 assign_full_14_2_10 >= -10000
 pair_full_ub_14_2_10: +1 pair_completion_14 -1 full_end_2_10 +10000 assign_full_14_2_10 <= +10000
 pair_full_lb_16_1_1: +1 pair_completion_16 -1 full_end_1_1 -10000 assign_full_16_1_1 >= -10000
 pair_full_ub_16_1_1: +1 pair_completion_16 -1 full_end_1_1 +10000 assign_full_16_1_1 <= +10000
 pair_full_lb_16_1_2: +1 pair_completion_16 -1 full_end_1_2 -10000 assign_full_16_1_2 >= -10000
 pair_full_ub_16_1_2: +1 pair_completion_16 -1 full_end_1_2 +10000 assign_full_16_1_2 <= +10000
 pair_full_lb_16_1_3: +1 pair_completion_16 -1 full_end_1_3 -10000 assign_full_16_1_3 >= -10000
 pair_full_ub_16_1_3: +1 pair_completion_16 -1 full_end_1_3 +10000 assign_full_16_1_3 <= +10000
 pair_full_lb_16_1_4: +1 pair_completion_16 -1 full_end_1_4 -10000 assign_full_16_1_4 >= -10000
 pair_full_ub_16_1_4: +1 pair_completion_16 -1 full_end_1_4 +10000 assign_full_16_1_4 <= +10000
 pair_full_lb_16_1_5: +1 pair_completion_16 -1 full_end_1_5 -10000 assign_full_16_1_5 >= -10000
 pair_full_ub_16_1_5: +1 pair_completion_16 -1 full_end_1_5 +10000 assign_full_16_1_5 <= +10000
 pair_full_lb_16_1_6: +1 pair_completion_16 -1 full_end_1_6 -10000 assign_full_16_1_6 >= -10000
 pair_full_ub_16_1_6: +1 pair_completion_16 -1 full_end_1_6 +10000 assign_full_16_1_6 <= +10000
 pair_full_lb_16_1_7: +1 pair_completion_16 -1 full_end_1_7 -10000 assign_full_16_1_7 >= -10000
 pair_full_ub_16_1_7: +1 pair_completion_16 -1 full_end_1_7 +10000 assign_full_16_1_7 <= +10000
 pair_full_lb_16_1_8: +1 pair_completion_16 -1 full_end_1_8 -10000 assign_full_16_1_8 >= -10000
 pair_full_ub_16_1_8: +1 pair_completion_16 -1 full_end_1_8 +10000 assign_full_16_1_8 <= +10000
 pair_full_lb_16_1_9: +1 pair_completion_16 -1 full_end_1_9 -10000 assign_full_16_1_9 >= -10000
 pair_full_ub_16_1_9: +1 pair_completion_16 -1 full_end_1_9 +10000 assign_full_16_1_9 <= +10000
 pair_full_lb_16_1_10: +1 pair_completion_16 -1 full_end_1_10 -10000 assign_full_16_1_10 >= -10000
 pair_full_ub_16_1_10: +1 pair_completion_16 -1 full_end_1_10 +10000 assign_full_16_1_10 <= +10000
 pair_full_lb_16_2_1: +1 pair_completion_16 -1 full_end_2_1 -10000 assign_full_16_2_1 >= -10000
 pair_full_ub_16_2_1: +1 pair_completion_16 -1 full_end_2_1 +10000 assign_full_16_2_1 <= +10000
 pair_full_lb_16_2_2: +1 pair_completion_16 -1 full_end_2_2 -10000 assign_full_16_2_2 >= -10000
 pair_full_ub_16_2_2: +1 pair_completion_16 -1 full_end_2_2 +10000 assign_full_16_2_2 <= +10000
 pair_full_lb_16_2_3: +1 pair_completion_16 -1 full_end_2_3 -10000 assign_full_16_2_3 >= -10000
 pair_full_ub_16_2_3: +1 pair_completion_16 -1 full_end_2_3 +10000 assign_full_16_2_3 <= +10000
 pair_full_lb_16_2_4: +1 pair_completion_16 -1 full_end_2_4 -10000 assign_full_16_2_4 >= -10000
 pair_full_ub_16_2_4: +1 pair_completion_16 -1 full_end_2_4 +10000 assign_full_16_2_4 <= +10000
 pair_full_lb_16_2_5: +1 pair_completion_16 -1 full_end_2_5 -10000 assign_full_16_2_5 >= -10000
 pair_full_ub_16_2_5: +1 pair_completion_16 -1 full_end_2_5 +10000 assign_full_16_2_5 <= +10000
 pair_full_lb_16_2_6: +1 pair_completion_16 -1 full_end_2_6 -10000 assign_full_16_2_6 >= -10000
 pair_full_ub_16_2_6: +1 pair_completion_16 -1 full_end_2_6 +10000 assign_full_16_2_6 <= +10000
 pair_full_lb_16_2_7: +1 pair_completion_16 -1 full_end_2_7 -10000 assign_full_16_2_7 >= -10000
 pair_full_ub_16_2_7: +1 pair_completion_16 -1 full_end_2_7 +10000 assign_full_16_2_7 <= +10000
 pair_full_lb_16_2_8: +1 pair_completion_16 -1 full_end_2_8 -10000 assign_full_16_2_8 >= -10000
 pair_full_ub_16_2_8: +1 pair_completion_16 -1 full_end_2_8 +10000 assign_full_16_2_8 <= +10000
 pair_full_lb_16_2_9: +1 pair_completion_16 -1 full_end_2_9 -10000 assign_full_16_2_9 >= -10000
 pair_full_ub_16_2_9: +1 pair_completion_16 -1 full_end_2_9 +10000 assign_full_16_2_9 <= +10000
 pair_full_lb_16_2_10: +1 pair_completion_16 -1 full_end_2_10 -10000 assign_full_16_2_10 >= -10000
 pair_full_ub_16_2_10: +1 pair_completion_16 -1 full_end_2_10 +10000 assign_full_16_2_10 <= +10000
 pair_full_lb_18_1_1: +1 pair_completion_18 -1 full_end_1_1 -10000 assign_full_18_1_1 >= -10000
 pair_full_ub_18_1_1: +1 pair_completion_18 -1 full_end_1_1 +10000 assign_full_18_1_1 <= +10000
 pair_full_lb_18_1_2: +1 pair_completion_18 -1 full_end_1_2 -10000 assign_full_18_1_2 >= -10000
 pair_full_ub_18_1_2: +1 pair_completion_18 -1 full_end_1_2 +10000 assign_full_18_1_2 <= +10000
 pair_full_lb_18_1_3: +1 pair_completion_18 -1 full_end_1_3 -10000 assign_full_18_1_3 >= -10000
 pair_full_ub_18_1_3: +1 pair_completion_18 -1 full_end_1_3 +10000 assign_full_18_1_3 <= +10000
 pair_full_lb_18_1_4: +1 pair_completion_18 -1 full_end_1_4 -10000 assign_full_18_1_4 >= -10000
 pair_full_ub_18_1_4: +1 pair_completion_18 -1 full_end_1_4 +10000 assign_full_18_1_4 <= +10000
 pair_full_lb_18_1_5: +1 pair_completion_18 -1 full_end_1_5 -10000 assign_full_18_1_5 >= -10000
 pair_full_ub_18_1_5: +1 pair_completion_18 -1 full_end_1_5 +10000 assign_full_18_1_5 <= +10000
 pair_full_lb_18_1_6: +1 pair_completion_18 -1 full_end_1_6 -10000 assign_full_18_1_6 >= -10000
 pair_full_ub_18_1_6: +1 pair_completion_18 -1 full_end_1_6 +10000 assign_full_18_1_6 <= +10000
 pair_full_lb_18_1_7: +1 pair_completion_18 -1 full_end_1_7 -10000 assign_full_18_1_7 >= -10000
 pair_full_ub_18_1_7: +1 pair_completion_18 -1 full_end_1_7 +10000 assign_full_18_1_7 <= +10000
 pair_full_lb_18_1_8: +1 pair_completion_18 -1 full_end_1_8 -10000 assign_full_18_1_8 >= -10000
 pair_full_ub_18_1_8: +1 pair_completion_18 -1 full_end_1_8 +10000 assign_full_18_1_8 <= +10000
 pair_full_lb_18_1_9: +1 pair_completion_18 -1 full_end_1_9 -10000 assign_full_18_1_9 >= -10000
 pair_full_ub_18_1_9: +1 pair_completion_18 -1 full_end_1_9 +10000 assign_full_18_1_9 <= +10000
 pair_full_lb_18_1_10: +1 pair_completion_18 -1 full_end_1_10 -10000 assign_full_18_1_10 >= -10000
 pair_full_ub_18_1_10: +1 pair_completion_18 -1 full_end_1_10 +10000 assign_full_18_1_10 <= +10000
 pair_full_lb_18_2_1: +1 pair_completion_18 -1 full_end_2_1 -10000 assign_full_18_2_1 >= -10000
 pair_full_ub_18_2_1: +1 pair_completion_18 -1 full_end_2_1 +10000 assign_full_18_2_1 <= +10000
 pair_full_lb_18_2_2: +1 pair_completion_18 -1 full_end_2_2 -10000 assign_full_18_2_2 >= -10000
 pair_full_ub_18_2_2: +1 pair_completion_18 -1 full_end_2_2 +10000 assign_full_18_2_2 <= +10000
 pair_full_lb_18_2_3: +1 pair_completion_18 -1 full_end_2_3 -10000 assign_full_18_2_3 >= -10000
 pair_full_ub_18_2_3: +1 pair_completion_18 -1 full_end_2_3 +10000 assign_full_18_2_3 <= +10000
 pair_full_lb_18_2_4: +1 pair_completion_18 -1 full_end_2_4 -10000 assign_full_18_2_4 >= -10000
 pair_full_ub_18_2_4: +1 pair_completion_18 -1 full_end_2_4 +10000 assign_full_18_2_4 <= +10000
 pair_full_lb_18_2_5: +1 pair_completion_18 -1 full_end_2_5 -10000 assign_full_18_2_5 >= -10000
 pair_full_ub_18_2_5: +1 pair_completion_18 -1 full_end_2_5 +10000 assign_full_18_2_5 <= +10000
 pair_full_lb_18_2_6: +1 pair_completion_18 -1 full_end_2_6 -10000 assign_full_18_2_6 >= -10000
 pair_full_ub_18_2_6: +1 pair_completion_18 -1 full_end_2_6 +10000 assign_full_18_2_6 <= +10000
 pair_full_lb_18_2_7: +1 pair_completion_18 -1 full_end_2_7 -10000 assign_full_18_2_7 >= -10000
 pair_full_ub_18_2_7: +1 pair_completion_18 -1 full_end_2_7 +10000 assign_full_18_2_7 <= +10000
 pair_full_lb_18_2_8: +1 pair_completion_18 -1 full_end_2_8 -10000 assign_full_18_2_8 >= -10000
 pair_full_ub_18_2_8: +1 pair_completion_18 -1 full_end_2_8 +10000 assign_full_18_2_8 <= +10000
 pair_full_lb_18_2_9: +1 pair_completion_18 -1 full_end_2_9 -10000 assign_full_18_2_9 >= -10000
 pair_full_ub_18_2_9: +1 pair_completion_18 -1 full_end_2_9 +10000 assign_full_18_2_9 <= +10000
 pair_full_lb_18_2_10: +1 pair_completion_18 -1 full_end_2_10 -10000 assign_full_18_2_10 >= -10000
 pair_full_ub_18_2_10: +1 pair_completion_18 -1 full_end_2_10 +10000 assign_full_18_2_10 <= +10000
 pair_full_lb_20_1_1: +1 pair_completion_20 -1 full_end_1_1 -10000 assign_full_20_1_1 >= -10000
 pair_full_ub_20_1_1: +1 pair_completion_20 -1 full_end_1_1 +10000 assign_full_20_1_1 <= +10000
 pair_full_lb_20_1_2: +1 pair_completion_20 -1 full_end_1_2 -10000 assign_full_20_1_2 >= -10000
 pair_full_ub_20_1_2: +1 pair_completion_20 -1 full_end_1_2 +10000 assign_full_20_1_2 <= +10000
 pair_full_lb_20_1_3: +1 pair_completion_20 -1 full_end_1_3 -10000 assign_full_20_1_3 >= -10000
 pair_full_ub_20_1_3: +1 pair_completion_20 -1 full_end_1_3 +10000 assign_full_20_1_3 <= +10000
 pair_full_lb_20_1_4: +1 pair_completion_20 -1 full_end_1_4 -10000 assign_full_20_1_4 >= -10000
 pair_full_ub_20_1_4: +1 pair_completion_20 -1 full_end_1_4 +10000 assign_full_20_1_4 <= +10000
 pair_full_lb_20_1_5: +1 pair_completion_20 -1 full_end_1_5 -10000 assign_full_20_1_5 >= -10000
 pair_full_ub_20_1_5: +1 pair_completion_20 -1 full_end_1_5 +10000 assign_full_20_1_5 <= +10000
 pair_full_lb_20_1_6: +1 pair_completion_20 -1 full_end_1_6 -10000 assign_full_20_1_6 >= -10000
 pair_full_ub_20_1_6: +1 pair_completion_20 -1 full_end_1_6 +10000 assign_full_20_1_6 <= +10000
 pair_full_lb_20_1_7: +1 pair_completion_20 -1 full_end_1_7 -10000 assign_full_20_1_7 >= -10000
 pair_full_ub_20_1_7: +1 pair_completion_20 -1 full_end_1_7 +10000 assign_full_20_1_7 <= +10000
 pair_full_lb_20_1_8: +1 pair_completion_20 -1 full_end_1_8 -10000 assign_full_20_1_8 >= -10000
 pair_full_ub_20_1_8: +1 pair_completion_20 -1 full_end_1_8 +10000 assign_full_20_1_8 <= +10000
 pair_full_lb_20_1_9: +1 pair_completion_20 -1 full_end_1_9 -10000 assign_full_20_1_9 >= -10000
 pair_full_ub_20_1_9: +1 pair_completion_20 -1 full_end_1_9 +10000 assign_full_20_1_9 <= +10000
 pair_full_lb_20_1_10: +1 pair_completion_20 -1 full_end_1_10 -10000 assign_full_20_1_10 >= -10000
 pair_full_ub_20_1_10: +1 pair_completion_20 -1 full_end_1_10 +10000 assign_full_20_1_10 <= +10000
 pair_full_lb_20_2_1: +1 pair_completion_20 -1 full_end_2_1 -10000 assign_full_20_2_1 >= -10000
 pair_full_ub_20_2_1: +1 pair_completion_20 -1 full_end_2_1 +10000 assign_full_20_2_1 <= +10000
 pair_full_lb_20_2_2: +1 pair_completion_20 -1 full_end_2_2 -10000 assign_full_20_2_2 >= -10000
 pair_full_ub_20_2_2: +1 pair_completion_20 -1 full_end_2_2 +10000 assign_full_20_2_2 <= +10000
 pair_full_lb_20_2_3: +1 pair_completion_20 -1 full_end_2_3 -10000 assign_full_20_2_3 >= -10000
 pair_full_ub_20_2_3: +1 pair_completion_20 -1 full_end_2_3 +10000 assign_full_20_2_3 <= +10000
 pair_full_lb_20_2_4: +1 pair_completion_20 -1 full_end_2_4 -10000 assign_full_20_2_4 >= -10000
 pair_full_ub_20_2_4: +1 pair_completion_20 -1 full_end_2_4 +10000 assign_full_20_2_4 <= +10000
 pair_full_lb_20_2_5: +1 pair_completion_20 -1 full_end_2_5 -10000 assign_full_20_2_5 >= -10000
 pair_full_ub_20_2_5: +1 pair_completion_20 -1 full_end_2_5 +10000 assign_full_20_2_5 <= +10000
 pair_full_lb_20_2_6: +1 pair_completion_20 -1 full_end_2_6 -10000 assign_full_20_2_6 >= -10000
 pair_full_ub_20_2_6: +1 pair_completion_20 -1 full_end_2_6 +10000 assign_full_20_2_6 <= +10000
 pair_full_lb_20_2_7: +1 pair_completion_20 -1 full_end_2_7 -10000 assign_full_20_2_7 >= -10000
 pair_full_ub_20_2_7: +1 pair_completion_20 -1 full_end_2_7 +10000 assign_full_20_2_7 <= +10000
 pair_full_lb_20_2_8: +1 pair_completion_20 -1 full_end_2_8 -10000 assign_full_20_2_8 >= -10000
 pair_full_ub_20_2_8: +1 pair_completion_20 -1 full_end_2_8 +10000 assign_full_20_2_8 <= +10000
 pair_full_lb_20_2_9: +1 pair_completion_20 -1 full_end_2_9 -10000 assign_full_20_2_9 >= -10000
 pair_full_ub_20_2_9: +1 pair_completion_20 -1 full_end_2_9 +10000 assign_full_20_2_9 <= +10000
 pair_full_lb_20_2_10: +1 pair_completion_20 -1 full_end_2_10 -10000 assign_full_20_2_10 >= -10000
 pair_full_ub_20_2_10: +1 pair_completion_20 -1 full_end_2_10 +10000 assign_full_20_2_10 <= +10000
 pair_mix_lb_1_1_1: +1 pair_completion_1 -1 mix_cycle_end_1_2 -10000 assign_mix_1_1_1 >= -10000
 pair_mix_ub_1_1_1: +1 pair_completion_1 -1 mix_cycle_end_1_2 +10000 assign_mix_1_1_1 <= +10000
 pair_mix_lb_1_1_2: +1 pair_completion_1 -1 mix_cycle_end_1_3 -10000 assign_mix_1_1_2 >= -10000
 pair_mix_ub_1_1_2: +1 pair_completion_1 -1 mix_cycle_end_1_3 +10000 assign_mix_1_1_2 <= +10000
 pair_mix_lb_1_1_3: +1 pair_completion_1 -1 mix_cycle_end_1_4 -10000 assign_mix_1_1_3 >= -10000
 pair_mix_ub_1_1_3: +1 pair_completion_1 -1 mix_cycle_end_1_4 +10000 assign_mix_1_1_3 <= +10000
 pair_mix_lb_1_1_4: +1 pair_completion_1 -1 mix_cycle_end_1_5 -10000 assign_mix_1_1_4 >= -10000
 pair_mix_ub_1_1_4: +1 pair_completion_1 -1 mix_cycle_end_1_5 +10000 assign_mix_1_1_4 <= +10000
 pair_mix_lb_1_1_5: +1 pair_completion_1 -1 mix_cycle_end_1_6 -10000 assign_mix_1_1_5 >= -10000
 pair_mix_ub_1_1_5: +1 pair_completion_1 -1 mix_cycle_end_1_6 +10000 assign_mix_1_1_5 <= +10000
 pair_mix_lb_1_1_6: +1 pair_completion_1 -1 mix_cycle_end_1_7 -10000 assign_mix_1_1_6 >= -10000
 pair_mix_ub_1_1_6: +1 pair_completion_1 -1 mix_cycle_end_1_7 +10000 assign_mix_1_1_6 <= +10000
 pair_mix_lb_1_1_7: +1 pair_completion_1 -1 mix_cycle_end_1_8 -10000 assign_mix_1_1_7 >= -10000
 pair_mix_ub_1_1_7: +1 pair_completion_1 -1 mix_cycle_end_1_8 +10000 assign_mix_1_1_7 <= +10000
 pair_mix_lb_1_1_8: +1 pair_completion_1 -1 mix_cycle_end_1_9 -10000 assign_mix_1_1_8 >= -10000
 pair_mix_ub_1_1_8: +1 pair_completion_1 -1 mix_cycle_end_1_9 +10000 assign_mix_1_1_8 <= +10000
 pair_mix_lb_1_1_9: +1 pair_completion_1 -1 mix_cycle_end_1_10 -10000 assign_mix_1_1_9 >= -10000
 pair_mix_ub_1_1_9: +1 pair_completion_1 -1 mix_cycle_end_1_10 +10000 assign_mix_1_1_9 <= +10000
 pair_mix_lb_1_1_10: +1 pair_completion_1 -1 mix_cycle_end_1_11 -10000 assign_mix_1_1_10 >= -10000
 pair_mix_ub_1_1_10: +1 pair_completion_1 -1 mix_cycle_end_1_11 +10000 assign_mix_1_1_10 <= +10000
 pair_mix_lb_1_2_1: +1 pair_completion_1 -1 mix_cycle_end_2_2 -10000 assign_mix_1_2_1 >= -10000
 pair_mix_ub_1_2_1: +1 pair_completion_1 -1 mix_cycle_end_2_2 +10000 assign_mix_1_2_1 <= +10000
 pair_mix_lb_1_2_2: +1 pair_completion_1 -1 mix_cycle_end_2_3 -10000 assign_mix_1_2_2 >= -10000
 pair_mix_ub_1_2_2: +1 pair_completion_1 -1 mix_cycle_end_2_3 +10000 assign_mix_1_2_2 <= +10000
 pair_mix_lb_1_2_3: +1 pair_completion_1 -1 mix_cycle_end_2_4 -10000 assign_mix_1_2_3 >= -10000
 pair_mix_ub_1_2_3: +1 pair_completion_1 -1 mix_cycle_end_2_4 +10000 assign_mix_1_2_3 <= +10000
 pair_mix_lb_1_2_4: +1 pair_completion_1 -1 mix_cycle_end_2_5 -10000 assign_mix_1_2_4 >= -10000
 pair_mix_ub_1_2_4: +1 pair_completion_1 -1 mix_cycle_end_2_5 +10000 assign_mix_1_2_4 <= +10000
 pair_mix_lb_1_2_5: +1 pair_completion_1 -1 mix_cycle_end_2_6 -10000 assign_mix_1_2_5 >= -10000
 pair_mix_ub_1_2_5: +1 pair_completion_1 -1 mix_cycle_end_2_6 +10000 assign_mix_1_2_5 <= +10000
 pair_mix_lb_1_2_6: +1 pair_completion_1 -1 mix_cycle_end_2_7 -10000 assign_mix_1_2_6 >= -10000
 pair_mix_ub_1_2_6: +1 pair_completion_1 -1 mix_cycle_end_2_7 +10000 assign_mix_1_2_6 <= +10000
 pair_mix_lb_1_2_7: +1 pair_completion_1 -1 mix_cycle_end_2_8 -10000 assign_mix_1_2_7 >= -10000
 pair_mix_ub_1_2_7: +1 pair_completion_1 -1 mix_cycle_end_2_8 +10000 assign_mix_1_2_7 <= +10000
 pair_mix_lb_1_2_8: +1 pair_completion_1 -1 mix_cycle_end_2_9 -10000 assign_mix_1_2_8 >= -10000
 pair_mix_ub_1_2_8: +1 pair_completion_1 -1 mix_cycle_end_2_9 +10000 assign_mix_1_2_8 <= +10000
 pair_mix_lb_1_2_9: +1 pair_completion_1 -1 mix_cycle_end_2_10 -10000 assign_mix_1_2_9 >= -10000
 pair_mix_ub_1_2_9: +1 pair_completion_1 -1 mix_cycle_end_2_10 +10000 assign_mix_1_2_9 <= +10000
 pair_mix_lb_1_2_10: +1 pair_completion_1 -1 mix_cycle_end_2_11 -10000 assign_mix_1_2_10 >= -10000
 pair_mix_ub_1_2_10: +1 pair_completion_1 -1 mix_cycle_end_2_11 +10000 assign_mix_1_2_10 <= +10000
 pair_mix_lb_3_1_1: +1 pair_completion_3 -1 mix_cycle_end_1_2 -10000 assign_mix_3_1_1 >= -10000
 pair_mix_ub_3_1_1: +1 pair_completion_3 -1 mix_cycle_end_1_2 +10000 assign_mix_3_1_1 <= +10000
 pair_mix_lb_3_1_2: +1 pair_completion_3 -1 mix_cycle_end_1_3 -10000 assign_mix_3_1_2 >= -10000
 pair_mix_ub_3_1_2: +1 pair_completion_3 -1 mix_cycle_end_1_3 +10000 assign_mix_3_1_2 <= +10000
 pair_mix_lb_3_1_3: +1 pair_completion_3 -1 mix_cycle_end_1_4 -10000 assign_mix_3_1_3 >= -10000
 pair_mix_ub_3_1_3: +1 pair_completion_3 -1 mix_cycle_end_1_4 +10000 assign_mix_3_1_3 <= +10000
 pair_mix_lb_3_1_4: +1 pair_completion_3 -1 mix_cycle_end_1_5 -10000 assign_mix_3_1_4 >= -10000
 pair_mix_ub_3_1_4: +1 pair_completion_3 -1 mix_cycle_end_1_5 +10000 assign_mix_3_1_4 <= +10000
 pair_mix_lb_3_1_5: +1 pair_completion_3 -1 mix_cycle_end_1_6 -10000 assign_mix_3_1_5 >= -10000
 pair_mix_ub_3_1_5: +1 pair_completion_3 -1 mix_cycle_end_1_6 +10000 assign_mix_3_1_5 <= +10000
 pair_mix_lb_3_1_6: +1 pair_completion_3 -1 mix_cycle_end_1_7 -10000 assign_mix_3_1_6 >= -10000
 pair_mix_ub_3_1_6: +1 pair_completion_3 -1 mix_cycle_end_1_7 +10000 assign_mix_3_1_6 <= +10000
 pair_mix_lb_3_1_7: +1 pair_completion_3 -1 mix_cycle_end_1_8 -10000 assign_mix_3_1_7 >= -10000
 pair_mix_ub_3_1_7: +1 pair_completion_3 -1 mix_cycle_end_1_8 +10000 assign_mix_3_1_7 <= +10000
 pair_mix_lb_3_1_8: +1 pair_completion_3 -1 mix_cycle_end_1_9 -10000 assign_mix_3_1_8 >= -10000
 pair_mix_ub_3_1_8: +1 pair_completion_3 -1 mix_cycle_end_1_9 +10000 assign_mix_3_1_8 <= +10000
 pair_mix_lb_3_1_9: +1 pair_completion_3 -1 mix_cycle_end_1_10 -10000 assign_mix_3_1_9 >= -10000
 pair_mix_ub_3_1_9: +1 pair_completion_3 -1 mix_cycle_end_1_10 +10000 assign_mix_3_1_9 <= +10000
 pair_mix_lb_3_1_10: +1 pair_completion_3 -1 mix_cycle_end_1_11 -10000 assign_mix_3_1_10 >= -10000
 pair_mix_ub_3_1_10: +1 pair_completion_3 -1 mix_cycle_end_1_11 +10000 assign_mix_3_1_10 <= +10000
 pair_mix_lb_3_2_1: +1 pair_completion_3 -1 mix_cycle_end_2_2 -10000 assign_mix_3_2_1 >= -10000
 pair_mix_ub_3_2_1: +1 pair_completion_3 -1 mix_cycle_end_2_2 +10000 assign_mix_3_2_1 <= +10000
 pair_mix_lb_3_2_2: +1 pair_completion_3 -1 mix_cycle_end_2_3 -10000 assign_mix_3_2_2 >= -10000
 pair_mix_ub_3_2_2: +1 pair_completion_3 -1 mix_cycle_end_2_3 +10000 assign_mix_3_2_2 <= +10000
 pair_mix_lb_3_2_3: +1 pair_completion_3 -1 mix_cycle_end_2_4 -10000 assign_mix_3_2_3 >= -10000
 pair_mix_ub_3_2_3: +1 pair_completion_3 -1 mix_cycle_end_2_4 +10000 assign_mix_3_2_3 <= +10000
 pair_mix_lb_3_2_4: +1 pair_completion_3 -1 mix_cycle_end_2_5 -10000 assign_mix_3_2_4 >= -10000
 pair_mix_ub_3_2_4: +1 pair_completion_3 -1 mix_cycle_end_2_5 +10000 assign_mix_3_2_4 <= +10000
 pair_mix_lb_3_2_5: +1 pair_completion_3 -1 mix_cycle_end_2_6 -10000 assign_mix_3_2_5 >= -10000
 pair_mix_ub_3_2_5: +1 pair_completion_3 -1 mix_cycle_end_2_6 +10000 assign_mix_3_2_5 <= +10000
 pair_mix_lb_3_2_6: +1 pair_completion_3 -1 mix_cycle_end_2_7 -10000 assign_mix_3_2_6 >= -10000
 pair_mix_ub_3_2_6: +1 pair_completion_3 -1 mix_cycle_end_2_7 +10000 assign_mix_3_2_6 <= +10000
 pair_mix_lb_3_2_7: +1 pair_completion_3 -1 mix_cycle_end_2_8 -10000 assign_mix_3_2_7 >= -10000
 pair_mix_ub_3_2_7: +1 pair_completion_3 -1 mix_cycle_end_2_8 +10000 assign_mix_3_2_7 <= +10000
 pair_mix_lb_3_2_8: +1 pair_completion_3 -1 mix_cycle_end_2_9 -10000 assign_mix_3_2_8 >= -10000
 pair_mix_ub_3_2_8: +1 pair_completion_3 -1 mix_cycle_end_2_9 +10000 assign_mix_3_2_8 <= +10000
 pair_mix_lb_3_2_9: +1 pair_completion_3 -1 mix_cycle_end_2_10 -10000 assign_mix_3_2_9 >= -10000
 pair_mix_ub_3_2_9: +1 pair_completion_3 -1 mix_cycle_end_2_10 +10000 assign_mix_3_2_9 <= +10000
 pair_mix_lb_3_2_10: +1 pair_completion_3 -1 mix_cycle_end_2_11 -10000 assign_mix_3_2_10 >= -10000
 pair_mix_ub_3_2_10: +1 pair_completion_3 -1 mix_cycle_end_2_11 +10000 assign_mix_3_2_10 <= +10000
 pair_mix_lb_5_1_1: +1 pair_completion_5 -1 mix_cycle_end_1_2 -10000 assign_mix_5_1_1 >= -10000
 pair_mix_ub_5_1_1: +1 pair_completion_5 -1 mix_cycle_end_1_2 +10000 assign_mix_5_1_1 <= +10000
 pair_mix_lb_5_1_2: +1 pair_completion_5 -1 mix_cycle_end_1_3 -10000 assign_mix_5_1_2 >= -10000
 pair_mix_ub_5_1_2: +1 pair_completion_5 -1 mix_cycle_end_1_3 +10000 assign_mix_5_1_2 <= +10000
 pair_mix_lb_5_1_3: +1 pair_completion_5 -1 mix_cycle_end_1_4 -10000 assign_mix_5_1_3 >= -10000
 pair_mix_ub_5_1_3: +1 pair_completion_5 -1 mix_cycle_end_1_4 +10000 assign_mix_5_1_3 <= +10000
 pair_mix_lb_5_1_4: +1 pair_completion_5 -1 mix_cycle_end_1_5 -10000 assign_mix_5_1_4 >= -10000
 pair_mix_ub_5_1_4: +1 pair_completion_5 -1 mix_cycle_end_1_5 +10000 assign_mix_5_1_4 <= +10000
 pair_mix_lb_5_1_5: +1 pair_completion_5 -1 mix_cycle_end_1_6 -10000 assign_mix_5_1_5 >= -10000
 pair_mix_ub_5_1_5: +1 pair_completion_5 -1 mix_cycle_end_1_6 +10000 assign_mix_5_1_5 <= +10000
 pair_mix_lb_5_1_6: +1 pair_completion_5 -1 mix_cycle_end_1_7 -10000 assign_mix_5_1_6 >= -10000
 pair_mix_ub_5_1_6: +1 pair_completion_5 -1 mix_cycle_end_1_7 +10000 assign_mix_5_1_6 <= +10000
 pair_mix_lb_5_1_7: +1 pair_completion_5 -1 mix_cycle_end_1_8 -10000 assign_mix_5_1_7 >= -10000
 pair_mix_ub_5_1_7: +1 pair_completion_5 -1 mix_cycle_end_1_8 +10000 assign_mix_5_1_7 <= +10000
 pair_mix_lb_5_1_8: +1 pair_completion_5 -1 mix_cycle_end_1_9 -10000 assign_mix_5_1_8 >= -10000
 pair_mix_ub_5_1_8: +1 pair_completion_5 -1 mix_cycle_end_1_9 +10000 assign_mix_5_1_8 <= +10000
 pair_mix_lb_5_1_9: +1 pair_completion_5 -1 mix_cycle_end_1_10 -10000 assign_mix_5_1_9 >= -10000
 pair_mix_ub_5_1_9: +1 pair_completion_5 -1 mix_cycle_end_1_10 +10000 assign_mix_5_1_9 <= +10000
 pair_mix_lb_5_1_10: +1 pair_completion_5 -1 mix_cycle_end_1_11 -10000 assign_mix_5_1_10 >= -10000
 pair_mix_ub_5_1_10: +1 pair_completion_5 -1 mix_cycle_end_1_11 +10000 assign_mix_5_1_10 <= +10000
 pair_mix_lb_5_2_1: +1 pair_completion_5 -1 mix_cycle_end_2_2 -10000 assign_mix_5_2_1 >= -10000
 pair_mix_ub_5_2_1: +1 pair_completion_5 -1 mix_cycle_end_2_2 +10000 assign_mix_5_2_1 <= +10000
 pair_mix_lb_5_2_2: +1 pair_completion_5 -1 mix_cycle_end_2_3 -10000 assign_mix_5_2_2 >= -10000
 pair_mix_ub_5_2_2: +1 pair_completion_5 -1 mix_cycle_end_2_3 +10000 assign_mix_5_2_2 <= +10000
 pair_mix_lb_5_2_3: +1 pair_completion_5 -1 mix_cycle_end_2_4 -10000 assign_mix_5_2_3 >= -10000
 pair_mix_ub_5_2_3: +1 pair_completion_5 -1 mix_cycle_end_2_4 +10000 assign_mix_5_2_3 <= +10000
 pair_mix_lb_5_2_4: +1 pair_completion_5 -1 mix_cycle_end_2_5 -10000 assign_mix_5_2_4 >= -10000
 pair_mix_ub_5_2_4: +1 pair_completion_5 -1 mix_cycle_end_2_5 +10000 assign_mix_5_2_4 <= +10000
 pair_mix_lb_5_2_5: +1 pair_completion_5 -1 mix_cycle_end_2_6 -10000 assign_mix_5_2_5 >= -10000
 pair_mix_ub_5_2_5: +1 pair_completion_5 -1 mix_cycle_end_2_6 +10000 assign_mix_5_2_5 <= +10000
 pair_mix_lb_5_2_6: +1 pair_completion_5 -1 mix_cycle_end_2_7 -10000 assign_mix_5_2_6 >= -10000
 pair_mix_ub_5_2_6: +1 pair_completion_5 -1 mix_cycle_end_2_7 +10000 assign_mix_5_2_6 <= +10000
 pair_mix_lb_5_2_7: +1 pair_completion_5 -1 mix_cycle_end_2_8 -10000 assign_mix_5_2_7 >= -10000
 pair_mix_ub_5_2_7: +1 pair_completion_5 -1 mix_cycle_end_2_8 +10000 assign_mix_5_2_7 <= +10000
 pair_mix_lb_5_2_8: +1 pair_completion_5 -1 mix_cycle_end_2_9 -10000 assign_mix_5_2_8 >= -10000
 pair_mix_ub_5_2_8: +1 pair_completion_5 -1 mix_cycle_end_2_9 +10000 assign_mix_5_2_8 <= +10000
 pair_mix_lb_5_2_9: +1 pair_completion_5 -1 mix_cycle_end_2_10 -10000 assign_mix_5_2_9 >= -10000
 pair_mix_ub_5_2_9: +1 pair_completion_5 -1 mix_cycle_end_2_10 +10000 assign_mix_5_2_9 <= +10000
 pair_mix_lb_5_2_10: +1 pair_completion_5 -1 mix_cycle_end_2_11 -10000 assign_mix_5_2_10 >= -10000
 pair_mix_ub_5_2_10: +1 pair_completion_5 -1 mix_cycle_end_2_11 +10000 assign_mix_5_2_10 <= +10000
 pair_mix_lb_7_1_1: +1 pair_completion_7 -1 mix_cycle_end_1_2 -10000 assign_mix_7_1_1 >= -10000
 pair_mix_ub_7_1_1: +1 pair_completion_7 -1 mix_cycle_end_1_2 +10000 assign_mix_7_1_1 <= +10000
 pair_mix_lb_7_1_2: +1 pair_completion_7 -1 mix_cycle_end_1_3 -10000 assign_mix_7_1_2 >= -10000
 pair_mix_ub_7_1_2: +1 pair_completion_7 -1 mix_cycle_end_1_3 +10000 assign_mix_7_1_2 <= +10000
 pair_mix_lb_7_1_3: +1 pair_completion_7 -1 mix_cycle_end_1_4 -10000 assign_mix_7_1_3 >= -10000
 pair_mix_ub_7_1_3: +1 pair_completion_7 -1 mix_cycle_end_1_4 +10000 assign_mix_7_1_3 <= +10000
 pair_mix_lb_7_1_4: +1 pair_completion_7 -1 mix_cycle_end_1_5 -10000 assign_mix_7_1_4 >= -10000
 pair_mix_ub_7_1_4: +1 pair_completion_7 -1 mix_cycle_end_1_5 +10000 assign_mix_7_1_4 <= +10000
 pair_mix_lb_7_1_5: +1 pair_completion_7 -1 mix_cycle_end_1_6 -10000 assign_mix_7_1_5 >= -10000
 pair_mix_ub_7_1_5: +1 pair_completion_7 -1 mix_cycle_end_1_6 +10000 assign_mix_7_1_5 <= +10000
 pair_mix_lb_7_1_6: +1 pair_completion_7 -1 mix_cycle_end_1_7 -10000 assign_mix_7_1_6 >= -10000
 pair_mix_ub_7_1_6: +1 pair_completion_7 -1 mix_cycle_end_1_7 +10000 assign_mix_7_1_6 <= +10000
 pair_mix_lb_7_1_7: +1 pair_completion_7 -1 mix_cycle_end_1_8 -10000 assign_mix_7_1_7 >= -10000
 pair_mix_ub_7_1_7: +1 pair_completion_7 -1 mix_cycle_end_1_8 +10000 assign_mix_7_1_7 <= +10000
 pair_mix_lb_7_1_8: +1 pair_completion_7 -1 mix_cycle_end_1_9 -10000 assign_mix_7_1_8 >= -10000
 pair_mix_ub_7_1_8: +1 pair_completion_7 -1 mix_cycle_end_1_9 +10000 assign_mix_7_1_8 <= +10000
 pair_mix_lb_7_1_9: +1 pair_completion_7 -1 mix_cycle_end_1_10 -10000 assign_mix_7_1_9 >= -10000
 pair_mix_ub_7_1_9: +1 pair_completion_7 -1 mix_cycle_end_1_10 +10000 assign_mix_7_1_9 <= +10000
 pair_mix_lb_7_1_10: +1 pair_completion_7 -1 mix_cycle_end_1_11 -10000 assign_mix_7_1_10 >= -10000
 pair_mix_ub_7_1_10: +1 pair_completion_7 -1 mix_cycle_end_1_11 +10000 assign_mix_7_1_10 <= +10000
 pair_mix_lb_7_2_1: +1 pair_completion_7 -1 mix_cycle_end_2_2 -10000 assign_mix_7_2_1 >= -10000
 pair_mix_ub_7_2_1: +1 pair_completion_7 -1 mix_cycle_end_2_2 +10000 assign_mix_7_2_1 <= +10000
 pair_mix_lb_7_2_2: +1 pair_completion_7 -1 mix_cycle_end_2_3 -10000 assign_mix_7_2_2 >= -10000
 pair_mix_ub_7_2_2: +1 pair_completion_7 -1 mix_cycle_end_2_3 +10000 assign_mix_7_2_2 <= +10000
 pair_mix_lb_7_2_3: +1 pair_completion_7 -1 mix_cycle_end_2_4 -10000 assign_mix_7_2_3 >= -10000
 pair_mix_ub_7_2_3: +1 pair_completion_7 -1 mix_cycle_end_2_4 +10000 assign_mix_7_2_3 <= +10000
 pair_mix_lb_7_2_4: +1 pair_completion_7 -1 mix_cycle_end_2_5 -10000 assign_mix_7_2_4 >= -10000
 pair_mix_ub_7_2_4: +1 pair_completion_7 -1 mix_cycle_end_2_5 +10000 assign_mix_7_2_4 <= +10000
 pair_mix_lb_7_2_5: +1 pair_completion_7 -1 mix_cycle_end_2_6 -10000 assign_mix_7_2_5 >= -10000
 pair_mix_ub_7_2_5: +1 pair_completion_7 -1 mix_cycle_end_2_6 +10000 assign_mix_7_2_5 <= +10000
 pair_mix_lb_7_2_6: +1 pair_completion_7 -1 mix_cycle_end_2_7 -10000 assign_mix_7_2_6 >= -10000
 pair_mix_ub_7_2_6: +1 pair_completion_7 -1 mix_cycle_end_2_7 +10000 assign_mix_7_2_6 <= +10000
 pair_mix_lb_7_2_7: +1 pair_completion_7 -1 mix_cycle_end_2_8 -10000 assign_mix_7_2_7 >= -10000
 pair_mix_ub_7_2_7: +1 pair_completion_7 -1 mix_cycle_end_2_8 +10000 assign_mix_7_2_7 <= +10000
 pair_mix_lb_7_2_8: +1 pair_completion_7 -1 mix_cycle_end_2_9 -10000 assign_mix_7_2_8 >= -10000
 pair_mix_ub_7_2_8: +1 pair_completion_7 -1 mix_cycle_end_2_9 +10000 assign_mix_7_2_8 <= +10000
 pair_mix_lb_7_2_9: +1 pair_completion_7 -1 mix_cycle_end_2_10 -10000 assign_mix_7_2_9 >= -10000
 pair_mix_ub_7_2_9: +1 pair_completion_7 -1 mix_cycle_end_2_10 +10000 assign_mix_7_2_9 <= +10000
 pair_mix_lb_7_2_10: +1 pair_completion_7 -1 mix_cycle_end_2_11 -10000 assign_mix_7_2_10 >= -10000
 pair_mix_ub_7_2_10: +1 pair_completion_7 -1 mix_cycle_end_2_11 +10000 assign_mix_7_2_10 <= +10000
 pair_mix_lb_9_1_1: +1 pair_completion_9 -1 mix_cycle_end_1_2 -10000 assign_mix_9_1_1 >= -10000
 pair_mix_ub_9_1_1: +1 pair_completion_9 -1 mix_cycle_end_1_2 +10000 assign_mix_9_1_1 <= +10000
 pair_mix_lb_9_1_2: +1 pair_completion_9 -1 mix_cycle_end_1_3 -10000 assign_mix_9_1_2 >= -10000
 pair_mix_ub_9_1_2: +1 pair_completion_9 -1 mix_cycle_end_1_3 +10000 assign_mix_9_1_2 <= +10000
 pair_mix_lb_9_1_3: +1 pair_completion_9 -1 mix_cycle_end_1_4 -10000 assign_mix_9_1_3 >= -10000
 pair_mix_ub_9_1_3: +1 pair_completion_9 -1 mix_cycle_end_1_4 +10000 assign_mix_9_1_3 <= +10000
 pair_mix_lb_9_1_4: +1 pair_completion_9 -1 mix_cycle_end_1_5 -10000 assign_mix_9_1_4 >= -10000
 pair_mix_ub_9_1_4: +1 pair_completion_9 -1 mix_cycle_end_1_5 +10000 assign_mix_9_1_4 <= +10000
 pair_mix_lb_9_1_5: +1 pair_completion_9 -1 mix_cycle_end_1_6 -10000 assign_mix_9_1_5 >= -10000
 pair_mix_ub_9_1_5: +1 pair_completion_9 -1 mix_cycle_end_1_6 +10000 assign_mix_9_1_5 <= +10000
 pair_mix_lb_9_1_6: +1 pair_completion_9 -1 mix_cycle_end_1_7 -10000 assign_mix_9_1_6 >= -10000
 pair_mix_ub_9_1_6: +1 pair_completion_9 -1 mix_cycle_end_1_7 +10000 assign_mix_9_1_6 <= +10000
 pair_mix_lb_9_1_7: +1 pair_completion_9 -1 mix_cycle_end_1_8 -10000 assign_mix_9_1_7 >= -10000
 pair_mix_ub_9_1_7: +1 pair_completion_9 -1 mix_cycle_end_1_8 +10000 assign_mix_9_1_7 <= +10000
 pair_mix_lb_9_1_8: +1 pair_completion_9 -1 mix_cycle_end_1_9 -10000 assign_mix_9_1_8 >= -10000
 pair_mix_ub_9_1_8: +1 pair_completion_9 -1 mix_cycle_end_1_9 +10000 assign_mix_9_1_8 <= +10000
 pair_mix_lb_9_1_9: +1 pair_completion_9 -1 mix_cycle_end_1_10 -10000 assign_mix_9_1_9 >= -10000
 pair_mix_ub_9_1_9: +1 pair_completion_9 -1 mix_cycle_end_1_10 +10000 assign_mix_9_1_9 <= +10000
 pair_mix_lb_9_1_10: +1 pair_completion_9 -1 mix_cycle_end_1_11 -10000 assign_mix_9_1_10 >= -10000
 pair_mix_ub_9_1_10: +1 pair_completion_9 -1 mix_cycle_end_1_11 +10000 assign_mix_9_1_10 <= +10000
 pair_mix_lb_9_2_1: +1 pair_completion_9 -1 mix_cycle_end_2_2 -10000 assign_mix_9_2_1 >= -10000
 pair_mix_ub_9_2_1: +1 pair_completion_9 -1 mix_cycle_end_2_2 +10000 assign_mix_9_2_1 <= +10000
 pair_mix_lb_9_2_2: +1 pair_completion_9 -1 mix_cycle_end_2_3 -10000 assign_mix_9_2_2 >= -10000
 pair_mix_ub_9_2_2: +1 pair_completion_9 -1 mix_cycle_end_2_3 +10000 assign_mix_9_2_2 <= +10000
 pair_mix_lb_9_2_3: +1 pair_completion_9 -1 mix_cycle_end_2_4 -10000 assign_mix_9_2_3 >= -10000
 pair_mix_ub_9_2_3: +1 pair_completion_9 -1 mix_cycle_end_2_4 +10000 assign_mix_9_2_3 <= +10000
 pair_mix_lb_9_2_4: +1 pair_completion_9 -1 mix_cycle_end_2_5 -10000 assign_mix_9_2_4 >= -10000
 pair_mix_ub_9_2_4: +1 pair_completion_9 -1 mix_cycle_end_2_5 +10000 assign_mix_9_2_4 <= +10000
 pair_mix_lb_9_2_5: +1 pair_completion_9 -1 mix_cycle_end_2_6 -10000 assign_mix_9_2_5 >= -10000
 pair_mix_ub_9_2_5: +1 pair_completion_9 -1 mix_cycle_end_2_6 +10000 assign_mix_9_2_5 <= +10000
 pair_mix_lb_9_2_6: +1 pair_completion_9 -1 mix_cycle_end_2_7 -10000 assign_mix_9_2_6 >= -10000
 pair_mix_ub_9_2_6: +1 pair_completion_9 -1 mix_cycle_end_2_7 +10000 assign_mix_9_2_6 <= +10000
 pair_mix_lb_9_2_7: +1 pair_completion_9 -1 mix_cycle_end_2_8 -10000 assign_mix_9_2_7 >= -10000
 pair_mix_ub_9_2_7: +1 pair_completion_9 -1 mix_cycle_end_2_8 +10000 assign_mix_9_2_7 <= +10000
 pair_mix_lb_9_2_8: +1 pair_completion_9 -1 mix_cycle_end_2_9 -10000 assign_mix_9_2_8 >= -10000
 pair_mix_ub_9_2_8: +1 pair_completion_9 -1 mix_cycle_end_2_9 +10000 assign_mix_9_2_8 <= +10000
 pair_mix_lb_9_2_9: +1 pair_completion_9 -1 mix_cycle_end_2_10 -10000 assign_mix_9_2_9 >= -10000
 pair_mix_ub_9_2_9: +1 pair_completion_9 -1 mix_cycle_end_2_10 +10000 assign_mix_9_2_9 <= +10000
 pair_mix_lb_9_2_10: +1 pair_completion_9 -1 mix_cycle_end_2_11 -10000 assign_mix_9_2_10 >= -10000
 pair_mix_ub_9_2_10: +1 pair_completion_9 -1 mix_cycle_end_2_11 +10000 assign_mix_9_2_10 <= +10000
 pair_mix_lb_11_1_1: +1 pair_completion_11 -1 mix_cycle_end_1_2 -10000 assign_mix_11_1_1 >= -10000
 pair_mix_ub_11_1_1: +1 pair_completion_11 -1 mix_cycle_end_1_2 +10000 assign_mix_11_1_1 <= +10000
 pair_mix_lb_11_1_2: +1 pair_completion_11 -1 mix_cycle_end_1_3 -10000 assign_mix_11_1_2 >= -10000
 pair_mix_ub_11_1_2: +1 pair_completion_11 -1 mix_cycle_end_1_3 +10000 assign_mix_11_1_2 <= +10000
 pair_mix_lb_11_1_3: +1 pair_completion_11 -1 mix_cycle_end_1_4 -10000 assign_mix_11_1_3 >= -10000
 pair_mix_ub_11_1_3: +1 pair_completion_11 -1 mix_cycle_end_1_4 +10000 assign_mix_11_1_3 <= +10000
 pair_mix_lb_11_1_4: +1 pair_completion_11 -1 mix_cycle_end_1_5 -10000 assign_mix_11_1_4 >= -10000
 pair_mix_ub_11_1_4: +1 pair_completion_11 -1 mix_cycle_end_1_5 +10000 assign_mix_11_1_4 <= +10000
 pair_mix_lb_11_1_5: +1 pair_completion_11 -1 mix_cycle_end_1_6 -10000 assign_mix_11_1_5 >= -10000
 pair_mix_ub_11_1_5: +1 pair_completion_11 -1 mix_cycle_end_1_6 +10000 assign_mix_11_1_5 <= +10000
 pair_mix_lb_11_1_6: +1 pair_completion_11 -1 mix_cycle_end_1_7 -10000 assign_mix_11_1_6 >= -10000
 pair_mix_ub_11_1_6: +1 pair_completion_11 -1 mix_cycle_end_1_7 +10000 assign_mix_11_1_6 <= +10000
 pair_mix_lb_11_1_7: +1 pair_completion_11 -1 mix_cycle_end_1_8 -10000 assign_mix_11_1_7 >= -10000
 pair_mix_ub_11_1_7: +1 pair_completion_11 -1 mix_cycle_end_1_8 +10000 assign_mix_11_1_7 <= +10000
 pair_mix_lb_11_1_8: +1 pair_completion_11 -1 mix_cycle_end_1_9 -10000 assign_mix_11_1_8 >= -10000
 pair_mix_ub_11_1_8: +1 pair_completion_11 -1 mix_cycle_end_1_9 +10000 assign_mix_11_1_8 <= +10000
 pair_mix_lb_11_1_9: +1 pair_completion_11 -1 mix_cycle_end_1_10 -10000 assign_mix_11_1_9 >= -10000
 pair_mix_ub_11_1_9: +1 pair_completion_11 -1 mix_cycle_end_1_10 +10000 assign_mix_11_1_9 <= +10000
 pair_mix_lb_11_1_10: +1 pair_completion_11 -1 mix_cycle_end_1_11 -10000 assign_mix_11_1_10 >= -10000
 pair_mix_ub_11_1_10: +1 pair_completion_11 -1 mix_cycle_end_1_11 +10000 assign_mix_11_1_10 <= +10000
 pair_mix_lb_11_2_1: +1 pair_completion_11 -1 mix_cycle_end_2_2 -10000 assign_mix_11_2_1 >= -10000
 pair_mix_ub_11_2_1: +1 pair_completion_11 -1 mix_cycle_end_2_2 +10000 assign_mix_11_2_1 <= +10000
 pair_mix_lb_11_2_2: +1 pair_completion_11 -1 mix_cycle_end_2_3 -10000 assign_mix_11_2_2 >= -10000
 pair_mix_ub_11_2_2: +1 pair_completion_11 -1 mix_cycle_end_2_3 +10000 assign_mix_11_2_2 <= +10000
 pair_mix_lb_11_2_3: +1 pair_completion_11 -1 mix_cycle_end_2_4 -10000 assign_mix_11_2_3 >= -10000
 pair_mix_ub_11_2_3: +1 pair_completion_11 -1 mix_cycle_end_2_4 +10000 assign_mix_11_2_3 <= +10000
 pair_mix_lb_11_2_4: +1 pair_completion_11 -1 mix_cycle_end_2_5 -10000 assign_mix_11_2_4 >= -10000
 pair_mix_ub_11_2_4: +1 pair_completion_11 -1 mix_cycle_end_2_5 +10000 assign_mix_11_2_4 <= +10000
 pair_mix_lb_11_2_5: +1 pair_completion_11 -1 mix_cycle_end_2_6 -10000 assign_mix_11_2_5 >= -10000
 pair_mix_ub_11_2_5: +1 pair_completion_11 -1 mix_cycle_end_2_6 +10000 assign_mix_11_2_5 <= +10000
 pair_mix_lb_11_2_6: +1 pair_completion_11 -1 mix_cycle_end_2_7 -10000 assign_mix_11_2_6 >= -10000
 pair_mix_ub_11_2_6: +1 pair_completion_11 -1 mix_cycle_end_2_7 +10000 assign_mix_11_2_6 <= +10000
 pair_mix_lb_11_2_7: +1 pair_completion_11 -1 mix_cycle_end_2_8 -10000 assign_mix_11_2_7 >= -10000
 pair_mix_ub_11_2_7: +1 pair_completion_11 -1 mix_cycle_end_2_8 +10000 assign_mix_11_2_7 <= +10000
 pair_mix_lb_11_2_8: +1 pair_completion_11 -1 mix_cycle_end_2_9 -10000 assign_mix_11_2_8 >= -10000
 pair_mix_ub_11_2_8: +1 pair_completion_11 -1 mix_cycle_end_2_9 +10000 assign_mix_11_2_8 <= +10000
 pair_mix_lb_11_2_9: +1 pair_completion_11 -1 mix_cycle_end_2_10 -10000 assign_mix_11_2_9 >= -10000
 pair_mix_ub_11_2_9: +1 pair_completion_11 -1 mix_cycle_end_2_10 +10000 assign_mix_11_2_9 <= +10000
 pair_mix_lb_11_2_10: +1 pair_completion_11 -1 mix_cycle_end_2_11 -10000 assign_mix_11_2_10 >= -10000
 pair_mix_ub_11_2_10: +1 pair_completion_11 -1 mix_cycle_end_2_11 +10000 assign_mix_11_2_10 <= +10000
 pair_mix_lb_13_1_1: +1 pair_completion_13 -1 mix_cycle_end_1_2 -10000 assign_mix_13_1_1 >= -10000
 pair_mix_ub_13_1_1: +1 pair_completion_13 -1 mix_cycle_end_1_2 +10000 assign_mix_13_1_1 <= +10000
 pair_mix_lb_13_1_2: +1 pair_completion_13 -1 mix_cycle_end_1_3 -10000 assign_mix_13_1_2 >= -10000
 pair_mix_ub_13_1_2: +1 pair_completion_13 -1 mix_cycle_end_1_3 +10000 assign_mix_13_1_2 <= +10000
 pair_mix_lb_13_1_3: +1 pair_completion_13 -1 mix_cycle_end_1_4 -10000 assign_mix_13_1_3 >= -10000
 pair_mix_ub_13_1_3: +1 pair_completion_13 -1 mix_cycle_end_1_4 +10000 assign_mix_13_1_3 <= +10000
 pair_mix_lb_13_1_4: +1 pair_completion_13 -1 mix_cycle_end_1_5 -10000 assign_mix_13_1_4 >= -10000
 pair_mix_ub_13_1_4: +1 pair_completion_13 -1 mix_cycle_end_1_5 +10000 assign_mix_13_1_4 <= +10000
 pair_mix_lb_13_1_5: +1 pair_completion_13 -1 mix_cycle_end_1_6 -10000 assign_mix_13_1_5 >= -10000
 pair_mix_ub_13_1_5: +1 pair_completion_13 -1 mix_cycle_end_1_6 +10000 assign_mix_13_1_5 <= +10000
 pair_mix_lb_13_1_6: +1 pair_completion_13 -1 mix_cycle_end_1_7 -10000 assign_mix_13_1_6 >= -10000
 pair_mix_ub_13_1_6: +1 pair_completion_13 -1 mix_cycle_end_1_7 +10000 assign_mix_13_1_6 <= +10000
 pair_mix_lb_13_1_7: +1 pair_completion_13 -1 mix_cycle_end_1_8 -10000 assign_mix_13_1_7 >= -10000
 pair_mix_ub_13_1_7: +1 pair_completion_13 -1 mix_cycle_end_1_8 +10000 assign_mix_13_1_7 <= +10000
 pair_mix_lb_13_1_8: +1 pair_completion_13 -1 mix_cycle_end_1_9 -10000 assign_mix_13_1_8 >= -10000
 pair_mix_ub_13_1_8: +1 pair_completion_13 -1 mix_cycle_end_1_9 +10000 assign_mix_13_1_8 <= +10000
 pair_mix_lb_13_1_9: +1 pair_completion_13 -1 mix_cycle_end_1_10 -10000 assign_mix_13_1_9 >= -10000
 pair_mix_ub_13_1_9: +1 pair_completion_13 -1 mix_cycle_end_1_10 +10000 assign_mix_13_1_9 <= +10000
 pair_mix_lb_13_1_10: +1 pair_completion_13 -1 mix_cycle_end_1_11 -10000 assign_mix_13_1_10 >= -10000
 pair_mix_ub_13_1_10: +1 pair_completion_13 -1 mix_cycle_end_1_11 +10000 assign_mix_13_1_10 <= +10000
 pair_mix_lb_13_2_1: +1 pair_completion_13 -1 mix_cycle_end_2_2 -10000 assign_mix_13_2_1 >= -10000
 pair_mix_ub_13_2_1: +1 pair_completion_13 -1 mix_cycle_end_2_2 +10000 assign_mix_13_2_1 <= +10000
 pair_mix_lb_13_2_2: +1 pair_completion_13 -1 mix_cycle_end_2_3 -10000 assign_mix_13_2_2 >= -10000
 pair_mix_ub_13_2_2: +1 pair_completion_13 -1 mix_cycle_end_2_3 +10000 assign_mix_13_2_2 <= +10000
 pair_mix_lb_13_2_3: +1 pair_completion_13 -1 mix_cycle_end_2_4 -10000 assign_mix_13_2_3 >= -10000
 pair_mix_ub_13_2_3: +1 pair_completion_13 -1 mix_cycle_end_2_4 +10000 assign_mix_13_2_3 <= +10000
 pair_mix_lb_13_2_4: +1 pair_completion_13 -1 mix_cycle_end_2_5 -10000 assign_mix_13_2_4 >= -10000
 pair_mix_ub_13_2_4: +1 pair_completion_13 -1 mix_cycle_end_2_5 +10000 assign_mix_13_2_4 <= +10000
 pair_mix_lb_13_2_5: +1 pair_completion_13 -1 mix_cycle_end_2_6 -10000 assign_mix_13_2_5 >= -10000
 pair_mix_ub_13_2_5: +1 pair_completion_13 -1 mix_cycle_end_2_6 +10000 assign_mix_13_2_5 <= +10000
 pair_mix_lb_13_2_6: +1 pair_completion_13 -1 mix_cycle_end_2_7 -10000 assign_mix_13_2_6 >= -10000
 pair_mix_ub_13_2_6: +1 pair_completion_13 -1 mix_cycle_end_2_7 +10000 assign_mix_13_2_6 <= +10000
 pair_mix_lb_13_2_7: +1 pair_completion_13 -1 mix_cycle_end_2_8 -10000 assign_mix_13_2_7 >= -10000
 pair_mix_ub_13_2_7: +1 pair_completion_13 -1 mix_cycle_end_2_8 +10000 assign_mix_13_2_7 <= +10000
 pair_mix_lb_13_2_8: +1 pair_completion_13 -1 mix_cycle_end_2_9 -10000 assign_mix_13_2_8 >= -10000
 pair_mix_ub_13_2_8: +1 pair_completion_13 -1 mix_cycle_end_2_9 +10000 assign_mix_13_2_8 <= +10000
 pair_mix_lb_13_2_9: +1 pair_completion_13 -1 mix_cycle_end_2_10 -10000 assign_mix_13_2_9 >= -10000
 pair_mix_ub_13_2_9: +1 pair_completion_13 -1 mix_cycle_end_2_10 +10000 assign_mix_13_2_9 <= +10000
 pair_mix_lb_13_2_10: +1 pair_completion_13 -1 mix_cycle_end_2_11 -10000 assign_mix_13_2_10 >= -10000
 pair_mix_ub_13_2_10: +1 pair_completion_13 -1 mix_cycle_end_2_11 +10000 assign_mix_13_2_10 <= +10000
 pair_mix_lb_15_1_1: +1 pair_completion_15 -1 mix_cycle_end_1_2 -10000 assign_mix_15_1_1 >= -10000
 pair_mix_ub_15_1_1: +1 pair_completion_15 -1 mix_cycle_end_1_2 +10000 assign_mix_15_1_1 <= +10000
 pair_mix_lb_15_1_2: +1 pair_completion_15 -1 mix_cycle_end_1_3 -10000 assign_mix_15_1_2 >= -10000
 pair_mix_ub_15_1_2: +1 pair_completion_15 -1 mix_cycle_end_1_3 +10000 assign_mix_15_1_2 <= +10000
 pair_mix_lb_15_1_3: +1 pair_completion_15 -1 mix_cycle_end_1_4 -10000 assign_mix_15_1_3 >= -10000
 pair_mix_ub_15_1_3: +1 pair_completion_15 -1 mix_cycle_end_1_4 +10000 assign_mix_15_1_3 <= +10000
 pair_mix_lb_15_1_4: +1 pair_completion_15 -1 mix_cycle_end_1_5 -10000 assign_mix_15_1_4 >= -10000
 pair_mix_ub_15_1_4: +1 pair_completion_15 -1 mix_cycle_end_1_5 +10000 assign_mix_15_1_4 <= +10000
 pair_mix_lb_15_1_5: +1 pair_completion_15 -1 mix_cycle_end_1_6 -10000 assign_mix_15_1_5 >= -10000
 pair_mix_ub_15_1_5: +1 pair_completion_15 -1 mix_cycle_end_1_6 +10000 assign_mix_15_1_5 <= +10000
 pair_mix_lb_15_1_6: +1 pair_completion_15 -1 mix_cycle_end_1_7 -10000 assign_mix_15_1_6 >= -10000
 pair_mix_ub_15_1_6: +1 pair_completion_15 -1 mix_cycle_end_1_7 +10000 assign_mix_15_1_6 <= +10000
 pair_mix_lb_15_1_7: +1 pair_completion_15 -1 mix_cycle_end_1_8 -10000 assign_mix_15_1_7 >= -10000
 pair_mix_ub_15_1_7: +1 pair_completion_15 -1 mix_cycle_end_1_8 +10000 assign_mix_15_1_7 <= +10000
 pair_mix_lb_15_1_8: +1 pair_completion_15 -1 mix_cycle_end_1_9 -10000 assign_mix_15_1_8 >= -10000
 pair_mix_ub_15_1_8: +1 pair_completion_15 -1 mix_cycle_end_1_9 +10000 assign_mix_15_1_8 <= +10000
 pair_mix_lb_15_1_9: +1 pair_completion_15 -1 mix_cycle_end_1_10 -10000 assign_mix_15_1_9 >= -10000
 pair_mix_ub_15_1_9: +1 pair_completion_15 -1 mix_cycle_end_1_10 +10000 assign_mix_15_1_9 <= +10000
 pair_mix_lb_15_1_10: +1 pair_completion_15 -1 mix_cycle_end_1_11 -10000 assign_mix_15_1_10 >= -10000
 pair_mix_ub_15_1_10: +1 pair_completion_15 -1 mix_cycle_end_1_11 +10000 assign_mix_15_1_10 <= +10000
 pair_mix_lb_15_2_1: +1 pair_completion_15 -1 mix_cycle_end_2_2 -10000 assign_mix_15_2_1 >= -10000
 pair_mix_ub_15_2_1: +1 pair_completion_15 -1 mix_cycle_end_2_2 +10000 assign_mix_15_2_1 <= +10000
 pair_mix_lb_15_2_2: +1 pair_completion_15 -1 mix_cycle_end_2_3 -10000 assign_mix_15_2_2 >= -10000
 pair_mix_ub_15_2_2: +1 pair_completion_15 -1 mix_cycle_end_2_3 +10000 assign_mix_15_2_2 <= +10000
 pair_mix_lb_15_2_3: +1 pair_completion_15 -1 mix_cycle_end_2_4 -10000 assign_mix_15_2_3 >= -10000
 pair_mix_ub_15_2_3: +1 pair_completion_15 -1 mix_cycle_end_2_4 +10000 assign_mix_15_2_3 <= +10000
 pair_mix_lb_15_2_4: +1 pair_completion_15 -1 mix_cycle_end_2_5 -10000 assign_mix_15_2_4 >= -10000
 pair_mix_ub_15_2_4: +1 pair_completion_15 -1 mix_cycle_end_2_5 +10000 assign_mix_15_2_4 <= +10000
 pair_mix_lb_15_2_5: +1 pair_completion_15 -1 mix_cycle_end_2_6 -10000 assign_mix_15_2_5 >= -10000
 pair_mix_ub_15_2_5: +1 pair_completion_15 -1 mix_cycle_end_2_6 +10000 assign_mix_15_2_5 <= +10000
 pair_mix_lb_15_2_6: +1 pair_completion_15 -1 mix_cycle_end_2_7 -10000 assign_mix_15_2_6 >= -10000
 pair_mix_ub_15_2_6: +1 pair_completion_15 -1 mix_cycle_end_2_7 +10000 assign_mix_15_2_6 <= +10000
 pair_mix_lb_15_2_7: +1 pair_completion_15 -1 mix_cycle_end_2_8 -10000 assign_mix_15_2_7 >= -10000
 pair_mix_ub_15_2_7: +1 pair_completion_15 -1 mix_cycle_end_2_8 +10000 assign_mix_15_2_7 <= +10000
 pair_mix_lb_15_2_8: +1 pair_completion_15 -1 mix_cycle_end_2_9 -10000 assign_mix_15_2_8 >= -10000
 pair_mix_ub_15_2_8: +1 pair_completion_15 -1 mix_cycle_end_2_9 +10000 assign_mix_15_2_8 <= +10000
 pair_mix_lb_15_2_9: +1 pair_completion_15 -1 mix_cycle_end_2_10 -10000 assign_mix_15_2_9 >= -10000
 pair_mix_ub_15_2_9: +1 pair_completion_15 -1 mix_cycle_end_2_10 +10000 assign_mix_15_2_9 <= +10000
 pair_mix_lb_15_2_10: +1 pair_completion_15 -1 mix_cycle_end_2_11 -10000 assign_mix_15_2_10 >= -10000
 pair_mix_ub_15_2_10: +1 pair_completion_15 -1 mix_cycle_end_2_11 +10000 assign_mix_15_2_10 <= +10000
 pair_mix_lb_17_1_1: +1 pair_completion_17 -1 mix_cycle_end_1_2 -10000 assign_mix_17_1_1 >= -10000
 pair_mix_ub_17_1_1: +1 pair_completion_17 -1 mix_cycle_end_1_2 +10000 assign_mix_17_1_1 <= +10000
 pair_mix_lb_17_1_2: +1 pair_completion_17 -1 mix_cycle_end_1_3 -10000 assign_mix_17_1_2 >= -10000
 pair_mix_ub_17_1_2: +1 pair_completion_17 -1 mix_cycle_end_1_3 +10000 assign_mix_17_1_2 <= +10000
 pair_mix_lb_17_1_3: +1 pair_completion_17 -1 mix_cycle_end_1_4 -10000 assign_mix_17_1_3 >= -10000
 pair_mix_ub_17_1_3: +1 pair_completion_17 -1 mix_cycle_end_1_4 +10000 assign_mix_17_1_3 <= +10000
 pair_mix_lb_17_1_4: +1 pair_completion_17 -1 mix_cycle_end_1_5 -10000 assign_mix_17_1_4 >= -10000
 pair_mix_ub_17_1_4: +1 pair_completion_17 -1 mix_cycle_end_1_5 +10000 assign_mix_17_1_4 <= +10000
 pair_mix_lb_17_1_5: +1 pair_completion_17 -1 mix_cycle_end_1_6 -10000 assign_mix_17_1_5 >= -10000
 pair_mix_ub_17_1_5: +1 pair_completion_17 -1 mix_cycle_end_1_6 +10000 assign_mix_17_1_5 <= +10000
 pair_mix_lb_17_1_6: +1 pair_completion_17 -1 mix_cycle_end_1_7 -10000 assign_mix_17_1_6 >= -10000
 pair_mix_ub_17_1_6: +1 pair_completion_17 -1 mix_cycle_end_1_7 +10000 assign_mix_17_1_6 <= +10000
 pair_mix_lb_17_1_7: +1 pair_completion_17 -1 mix_cycle_end_1_8 -10000 assign_mix_17_1_7 >= -10000
 pair_mix_ub_17_1_7: +1 pair_completion_17 -1 mix_cycle_end_1_8 +10000 assign_mix_17_1_7 <= +10000
 pair_mix_lb_17_1_8: +1 pair_completion_17 -1 mix_cycle_end_1_9 -10000 assign_mix_17_1_8 >= -10000
 pair_mix_ub_17_1_8: +1 pair_completion_17 -1 mix_cycle_end_1_9 +10000 assign_mix_17_1_8 <= +10000
 pair_mix_lb_17_1_9: +1 pair_completion_17 -1 mix_cycle_end_1_10 -10000 assign_mix_17_1_9 >= -10000
 pair_mix_ub_17_1_9: +1 pair_completion_17 -1 mix_cycle_end_1_10 +10000 assign_mix_17_1_9 <= +10000
 pair_mix_lb_17_1_10: +1 pair_completion_17 -1 mix_cycle_end_1_11 -10000 assign_mix_17_1_10 >= -10000
 pair_mix_ub_17_1_10: +1 pair_completion_17 -1 mix_cycle_end_1_11 +10000 assign_mix_17_1_10 <= +10000
 pair_mix_lb_17_2_1: +1 pair_completion_17 -1 mix_cycle_end_2_2 -10000 assign_mix_17_2_1 >= -10000
 pair_mix_ub_17_2_1: +1 pair_completion_17 -1 mix_cycle_end_2_2 +10000 assign_mix_17_2_1 <= +10000
 pair_mix_lb_17_2_2: +1 pair_completion_17 -1 mix_cycle_end_2_3 -10000 assign_mix_17_2_2 >= -10000
 pair_mix_ub_17_2_2: +1 pair_completion_17 -1 mix_cycle_end_2_3 +10000 assign_mix_17_2_2 <= +10000
 pair_mix_lb_17_2_3: +1 pair_completion_17 -1 mix_cycle_end_2_4 -10000 assign_mix_17_2_3 >= -10000
 pair_mix_ub_17_2_3: +1 pair_completion_17 -1 mix_cycle_end_2_4 +10000 assign_mix_17_2_3 <= +10000
 pair_mix_lb_17_2_4: +1 pair_completion_17 -1 mix_cycle_end_2_5 -10000 assign_mix_17_2_4 >= -10000
 pair_mix_ub_17_2_4: +1 pair_completion_17 -1 mix_cycle_end_2_5 +10000 assign_mix_17_2_4 <= +10000
 pair_mix_lb_17_2_5: +1 pair_completion_17 -1 mix_cycle_end_2_6 -10000 assign_mix_17_2_5 >= -10000
 pair_mix_ub_17_2_5: +1 pair_completion_17 -1 mix_cycle_end_2_6 +10000 assign_mix_17_2_5 <= +10000
 pair_mix_lb_17_2_6: +1 pair_completion_17 -1 mix_cycle_end_2_7 -10000 assign_mix_17_2_6 >= -10000
 pair_mix_ub_17_2_6: +1 pair_completion_17 -1 mix_cycle_end_2_7 +10000 assign_mix_17_2_6 <= +10000
 pair_mix_lb_17_2_7: +1 pair_completion_17 -1 mix_cycle_end_2_8 -10000 assign_mix_17_2_7 >= -10000
 pair_mix_ub_17_2_7: +1 pair_completion_17 -1 mix_cycle_end_2_8 +10000 assign_mix_17_2_7 <= +10000
 pair_mix_lb_17_2_8: +1 pair_completion_17 -1 mix_cycle_end_2_9 -10000 assign_mix_17_2_8 >= -10000
 pair_mix_ub_17_2_8: +1 pair_completion_17 -1 mix_cycle_end_2_9 +10000 assign_mix_17_2_8 <= +10000
 pair_mix_lb_17_2_9: +1 pair_completion_17 -1 mix_cycle_end_2_10 -10000 assign_mix_17_2_9 >= -10000
 pair_mix_ub_17_2_9: +1 pair_completion_17 -1 mix_cycle_end_2_10 +10000 assign_mix_17_2_9 <= +10000
 pair_mix_lb_17_2_10: +1 pair_completion_17 -1 mix_cycle_end_2_11 -10000 assign_mix_17_2_10 >= -10000
 pair_mix_ub_17_2_10: +1 pair_completion_17 -1 mix_cycle_end_2_11 +10000 assign_mix_17_2_10 <= +10000
 pair_mix_lb_19_1_1: +1 pair_completion_19 -1 mix_cycle_end_1_2 -10000 assign_mix_19_1_1 >= -10000
 pair_mix_ub_19_1_1: +1 pair_completion_19 -1 mix_cycle_end_1_2 +10000 assign_mix_19_1_1 <= +10000
 pair_mix_lb_19_1_2: +1 pair_completion_19 -1 mix_cycle_end_1_3 -10000 assign_mix_19_1_2 >= -10000
 pair_mix_ub_19_1_2: +1 pair_completion_19 -1 mix_cycle_end_1_3 +10000 assign_mix_19_1_2 <= +10000
 pair_mix_lb_19_1_3: +1 pair_completion_19 -1 mix_cycle_end_1_4 -10000 assign_mix_19_1_3 >= -10000
 pair_mix_ub_19_1_3: +1 pair_completion_19 -1 mix_cycle_end_1_4 +10000 assign_mix_19_1_3 <= +10000
 pair_mix_lb_19_1_4: +1 pair_completion_19 -1 mix_cycle_end_1_5 -10000 assign_mix_19_1_4 >= -10000
 pair_mix_ub_19_1_4: +1 pair_completion_19 -1 mix_cycle_end_1_5 +10000 assign_mix_19_1_4 <= +10000
 pair_mix_lb_19_1_5: +1 pair_completion_19 -1 mix_cycle_end_1_6 -10000 assign_mix_19_1_5 >= -10000
 pair_mix_ub_19_1_5: +1 pair_completion_19 -1 mix_cycle_end_1_6 +10000 assign_mix_19_1_5 <= +10000
 pair_mix_lb_19_1_6: +1 pair_completion_19 -1 mix_cycle_end_1_7 -10000 assign_mix_19_1_6 >= -10000
 pair_mix_ub_19_1_6: +1 pair_completion_19 -1 mix_cycle_end_1_7 +10000 assign_mix_19_1_6 <= +10000
 pair_mix_lb_19_1_7: +1 pair_completion_19 -1 mix_cycle_end_1_8 -10000 assign_mix_19_1_7 >= -10000
 pair_mix_ub_19_1_7: +1 pair_completion_19 -1 mix_cycle_end_1_8 +10000 assign_mix_19_1_7 <= +10000
 pair_mix_lb_19_1_8: +1 pair_completion_19 -1 mix_cycle_end_1_9 -10000 assign_mix_19_1_8 >= -10000
 pair_mix_ub_19_1_8: +1 pair_completion_19 -1 mix_cycle_end_1_9 +10000 assign_mix_19_1_8 <= +10000
 pair_mix_lb_19_1_9: +1 pair_completion_19 -1 mix_cycle_end_1_10 -10000 assign_mix_19_1_9 >= -10000
 pair_mix_ub_19_1_9: +1 pair_completion_19 -1 mix_cycle_end_1_10 +10000 assign_mix_19_1_9 <= +10000
 pair_mix_lb_19_1_10: +1 pair_completion_19 -1 mix_cycle_end_1_11 -10000 assign_mix_19_1_10 >= -10000
 pair_mix_ub_19_1_10: +1 pair_completion_19 -1 mix_cycle_end_1_11 +10000 assign_mix_19_1_10 <= +10000
 pair_mix_lb_19_2_1: +1 pair_completion_19 -1 mix_cycle_end_2_2 -10000 assign_mix_19_2_1 >= -10000
 pair_mix_ub_19_2_1: +1 pair_completion_19 -1 mix_cycle_end_2_2 +10000 assign_mix_19_2_1 <= +10000
 pair_mix_lb_19_2_2: +1 pair_completion_19 -1 mix_cycle_end_2_3 -10000 assign_mix_19_2_2 >= -10000
 pair_mix_ub_19_2_2: +1 pair_completion_19 -1 mix_cycle_end_2_3 +10000 assign_mix_19_2_2 <= +10000
 pair_mix_lb_19_2_3: +1 pair_completion_19 -1 mix_cycle_end_2_4 -10000 assign_mix_19_2_3 >= -10000
 pair_mix_ub_19_2_3: +1 pair_completion_19 -1 mix_cycle_end_2_4 +10000 assign_mix_19_2_3 <= +10000
 pair_mix_lb_19_2_4: +1 pair_completion_19 -1 mix_cycle_end_2_5 -10000 assign_mix_19_2_4 >= -10000
 pair_mix_ub_19_2_4: +1 pair_completion_19 -1 mix_cycle_end_2_5 +10000 assign_mix_19_2_4 <= +10000
 pair_mix_lb_19_2_5: +1 pair_completion_19 -1 mix_cycle_end_2_6 -10000 assign_mix_19_2_5 >= -10000
 pair_mix_ub_19_2_5: +1 pair_completion_19 -1 mix_cycle_end_2_6 +10000 assign_mix_19_2_5 <= +10000
 pair_mix_lb_19_2_6: +1 pair_completion_19 -1 mix_cycle_end_2_7 -10000 assign_mix_19_2_6 >= -10000
 pair_mix_ub_19_2_6: +1 pair_completion_19 -1 mix_cycle_end_2_7 +10000 assign_mix_19_2_6 <= +10000
 pair_mix_lb_19_2_7: +1 pair_completion_19 -1 mix_cycle_end_2_8 -10000 assign_mix_19_2_7 >= -10000
 pair_mix_ub_19_2_7: +1 pair_completion_19 -1 mix_cycle_end_2_8 +10000 assign_mix_19_2_7 <= +10000
 pair_mix_lb_19_2_8: +1 pair_completion_19 -1 mix_cycle_end_2_9 -10000 assign_mix_19_2_8 >= -10000
 pair_mix_ub_19_2_8: +1 pair_completion_19 -1 mix_cycle_end_2_9 +10000 assign_mix_19_2_8 <= +10000
 pair_mix_lb_19_2_9: +1 pair_completion_19 -1 mix_cycle_end_2_10 -10000 assign_mix_19_2_9 >= -10000
 pair_mix_ub_19_2_9: +1 pair_completion_19 -1 mix_cycle_end_2_10 +10000 assign_mix_19_2_9 <= +10000
 pair_mix_lb_19_2_10: +1 pair_completion_19 -1 mix_cycle_end_2_11 -10000 assign_mix_19_2_10 >= -10000
 pair_mix_ub_19_2_10: +1 pair_completion_19 -1 mix_cycle_end_2_11 +10000 assign_mix_19_2_10 <= +10000
 cmax_ge_pair_1: +1 c_max -1 pair_completion_1 >= +0
 cmax_ge_pair_2: +1 c_max -1 pair_completion_2 >= +0
 cmax_ge_pair_3: +1 c_max -1 pair_completion_3 >= +0
 cmax_ge_pair_4: +1 c_max -1 pair_completion_4 >= +0
 cmax_ge_pair_5: +1 c_max -1 pair_completion_5 >= +0
 cmax_ge_pair_6: +1 c_max -1 pair_completion_6 >= +0
 cmax_ge_pair_7: +1 c_max -1 pair_completion_7 >= +0
 cmax_ge_pair_8: +1 c_max -1 pair_completion_8 >= +0
 cmax_ge_pair_9: +1 c_max -1 pair_completion_9 >= +0
 cmax_ge_pair_10: +1 c_max -1 pair_completion_10 >= +0
 cmax_ge_pair_11: +1 c_max -1 pair_completion_11 >= +0
 cmax_ge_pair_12: +1 c_max -1 pair_completion_12 >= +0
 cmax_ge_pair_13: +1 c_max -1 pair_completion_13 >= +0
 cmax_ge_pair_14: +1 c_max -1 pair_completion_14 >= +0
 cmax_ge_pair_15: +1 c_max -1 pair_completion_15 >= +0
 cmax_ge_pair_16: +1 c_max -1 pair_completion_16 >= +0
 cmax_ge_pair_17: +1 c_max -1 pair_completion_17 >= +0
 cmax_ge_pair_18: +1 c_max -1 pair_completion_18 >= +0
 cmax_ge_pair_19: +1 c_max -1 pair_completion_19 >= +0
 cmax_ge_pair_20: +1 c_max -1 pair_completion_20 >= +0
 full_order_symmetry_1_1: +2 assign_full_2_1_1 +4 assign_full_4_1_1 +6 assign_full_6_1_1 +8 assign_full_8_1_1
  +10 assign_full_10_1_1 +12 assign_full_12_1_1 +14 assign_full_14_1_1 +16 assign_full_16_1_1 +18 assign_full_18_1_1
  +20 assign_full_20_1_1 -2 assign_full_2_1_2 -4 assign_full_4_1_2 -6 assign_full_6_1_2 -8 assign_full_8_1_2
  -10 assign_full_10_1_2 -12 assign_full_12_1_2 -14 assign_full_14_1_2 -16 assign_full_16_1_2 -18 assign_full_18_1_2
  -20 assign_full_20_1_2 +10000 full_slot_used_1_1 +10000 full_slot_used_1_2 <= +20000
 full_order_symmetry_1_2: +2 assign_full_2_1_2 +4 assign_full_4_1_2 +6 assign_full_6_1_2 +8 assign_full_8_1_2
  +10 assign_full_10_1_2 +12 assign_full_12_1_2 +14 assign_full_14_1_2 +16 assign_full_16_1_2 +18 assign_full_18_1_2
  +20 assign_full_20_1_2 -2 assign_full_2_1_3 -4 assign_full_4_1_3 -6 assign_full_6_1_3 -8 assign_full_8_1_3
  -10 assign_full_10_1_3 -12 assign_full_12_1_3 -14 assign_full_14_1_3 -16 assign_full_16_1_3 -18 assign_full_18_1_3
  -20 assign_full_20_1_3 +10000 full_slot_used_1_2 +10000 full_slot_used_1_3 <= +20000
 full_order_symmetry_1_3: +2 assign_full_2_1_3 +4 assign_full_4_1_3 +6 assign_full_6_1_3 +8 assign_full_8_1_3
  +10 assign_full_10_1_3 +12 assign_full_12_1_3 +14 assign_full_14_1_3 +16 assign_full_16_1_3 +18 assign_full_18_1_3
  +20 assign_full_20_1_3 -2 assign_full_2_1_4 -4 assign_full_4_1_4 -6 assign_full_6_1_4 -8 assign_full_8_1_4
  -10 assign_full_10_1_4 -12 assign_full_12_1_4 -14 assign_full_14_1_4 -16 assign_full_16_1_4 -18 assign_full_18_1_4
  -20 assign_full_20_1_4 +10000 full_slot_used_1_3 +10000 full_slot_used_1_4 <= +20000
 full_order_symmetry_1_4: +2 assign_full_2_1_4 +4 assign_full_4_1_4 +6 assign_full_6_1_4 +8 assign_full_8_1_4
  +10 assign_full_10_1_4 +12 assign_full_12_1_4 +14 assign_full_14_1_4 +16 assign_full_16_1_4 +18 assign_full_18_1_4
  +20 assign_full_20_1_4 -2 assign_full_2_1_5 -4 assign_full_4_1_5 -6 assign_full_6_1_5 -8 assign_full_8_1_5
  -10 assign_full_10_1_5 -12 assign_full_12_1_5 -14 assign_full_14_1_5 -16 assign_full_16_1_5 -18 assign_full_18_1_5
  -20 assign_full_20_1_5 +10000 full_slot_used_1_4 +10000 full_slot_used_1_5 <= +20000
 full_order_symmetry_1_5: +2 assign_full_2_1_5 +4 assign_full_4_1_5 +6 assign_full_6_1_5 +8 assign_full_8_1_5
  +10 assign_full_10_1_5 +12 assign_full_12_1_5 +14 assign_full_14_1_5 +16 assign_full_16_1_5 +18 assign_full_18_1_5
  +20 assign_full_20_1_5 -2 assign_full_2_1_6 -4 assign_full_4_1_6 -6 assign_full_6_1_6 -8 assign_full_8_1_6
  -10 assign_full_10_1_6 -12 assign_full_12_1_6 -14 assign_full_14_1_6 -16 assign_full_16_1_6 -18 assign_full_18_1_6
  -20 assign_full_20_1_6 +10000 full_slot_used_1_5 +10000 full_slot_used_1_6 <= +20000
 full_order_symmetry_1_6: +2 assign_full_2_1_6 +4 assign_full_4_1_6 +6 assign_full_6_1_6 +8 assign_full_8_1_6
  +10 assign_full_10_1_6 +12 assign_full_12_1_6 +14 assign_full_14_1_6 +16 assign_full_16_1_6 +18 assign_full_18_1_6
  +20 assign_full_20_1_6 -2 assign_full_2_1_7 -4 assign_full_4_1_7 -6 assign_full_6_1_7 -8 assign_full_8_1_7
  -10 assign_full_10_1_7 -12 assign_full_12_1_7 -14 assign_full_14_1_7 -16 assign_full_16_1_7 -18 assign_full_18_1_7
  -20 assign_full_20_1_7 +10000 full_slot_used_1_6 +10000 full_slot_used_1_7 <= +20000
 full_order_symmetry_1_7: +2 assign_full_2_1_7 +4 assign_full_4_1_7 +6 assign_full_6_1_7 +8 assign_full_8_1_7
  +10 assign_full_10_1_7 +12 assign_full_12_1_7 +14 assign_full_14_1_7 +16 assign_full_16_1_7 +18 assign_full_18_1_7
  +20 assign_full_20_1_7 -2 assign_full_2_1_8 -4 assign_full_4_1_8 -6 assign_full_6_1_8 -8 assign_full_8_1_8
  -10 assign_full_10_1_8 -12 assign_full_12_1_8 -14 assign_full_14_1_8 -16 assign_full_16_1_8 -18 assign_full_18_1_8
  -20 assign_full_20_1_8 +10000 full_slot_used_1_7 +10000 full_slot_used_1_8 <= +20000
 full_order_symmetry_1_8: +2 assign_full_2_1_8 +4 assign_full_4_1_8 +6 assign_full_6_1_8 +8 assign_full_8_1_8
  +10 assign_full_10_1_8 +12 assign_full_12_1_8 +14 assign_full_14_1_8 +16 assign_full_16_1_8 +18 assign_full_18_1_8
  +20 assign_full_20_1_8 -2 assign_full_2_1_9 -4 assign_full_4_1_9 -6 assign_full_6_1_9 -8 assign_full_8_1_9
  -10 assign_full_10_1_9 -12 assign_full_12_1_9 -14 assign_full_14_1_9 -16 assign_full_16_1_9 -18 assign_full_18_1_9
  -20 assign_full_20_1_9 +10000 full_slot_used_1_8 +10000 full_slot_used_1_9 <= +20000
 full_order_symmetry_1_9: +2 assign_full_2_1_9 +4 assign_full_4_1_9 +6 assign_full_6_1_9 +8 assign_full_8_1_9
  +10 assign_full_10_1_9 +12 assign_full_12_1_9 +14 assign_full_14_1_9 +16 assign_full_16_1_9 +18 assign_full_18_1_9
  +20 assign_full_20_1_9 -2 assign_full_2_1_10 -4 assign_full_4_1_10 -6 assign_full_6_1_10 -8 assign_full_8_1_10
  -10 assign_full_10_1_10 -12 assign_full_12_1_10 -14 assign_full_14_1_10 -16 assign_full_16_1_10 -18 assign_full_18_1_10
  -20 assign_full_20_1_10 +10000 full_slot_used_1_9 +10000 full_slot_used_1_10 <= +20000
 mix_order_symmetry_1_1: +1 assign_mix_1_1_1 +3 assign_mix_3_1_1 +5 assign_mix_5_1_1 +7 assign_mix_7_1_1
  +9 assign_mix_9_1_1 +11 assign_mix_11_1_1 +13 assign_mix_13_1_1 +15 assign_mix_15_1_1 +17 assign_mix_17_1_1
  +19 assign_mix_19_1_1 -1 assign_mix_1_1_2 -3 assign_mix_3_1_2 -5 assign_mix_5_1_2 -7 assign_mix_7_1_2
  -9 assign_mix_9_1_2 -11 assign_mix_11_1_2 -13 assign_mix_13_1_2 -15 assign_mix_15_1_2 -17 assign_mix_17_1_2
  -19 assign_mix_19_1_2 +10000 mix_pos_used_1_1 +10000 mix_pos_used_1_2 <= +20000
 mix_order_symmetry_1_2: +1 assign_mix_1_1_2 +3 assign_mix_3_1_2 +5 assign_mix_5_1_2 +7 assign_mix_7_1_2
  +9 assign_mix_9_1_2 +11 assign_mix_11_1_2 +13 assign_mix_13_1_2 +15 assign_mix_15_1_2 +17 assign_mix_17_1_2
  +19 assign_mix_19_1_2 -1 assign_mix_1_1_3 -3 assign_mix_3_1_3 -5 assign_mix_5_1_3 -7 assign_mix_7_1_3
  -9 assign_mix_9_1_3 -11 assign_mix_11_1_3 -13 assign_mix_13_1_3 -15 assign_mix_15_1_3 -17 assign_mix_17_1_3
  -19 assign_mix_19_1_3 +10000 mix_pos_used_1_2 +10000 mix_pos_used_1_3 <= +20000
 mix_order_symmetry_1_3: +1 assign_mix_1_1_3 +3 assign_mix_3_1_3 +5 assign_mix_5_1_3 +7 assign_mix_7_1_3
  +9 assign_mix_9_1_3 +11 assign_mix_11_1_3 +13 assign_mix_13_1_3 +15 assign_mix_15_1_3 +17 assign_mix_17_1_3
  +19 assign_mix_19_1_3 -1 assign_mix_1_1_4 -3 assign_mix_3_1_4 -5 assign_mix_5_1_4 -7 assign_mix_7_1_4
  -9 assign_mix_9_1_4 -11 assign_mix_11_1_4 -13 assign_mix_13_1_4 -15 assign_mix_15_1_4 -17 assign_mix_17_1_4
  -19 assign_mix_19_1_4 +10000 mix_pos_used_1_3 +10000 mix_pos_used_1_4 <= +20000
 mix_order_symmetry_1_4: +1 assign_mix_1_1_4 +3 assign_mix_3_1_4 +5 assign_mix_5_1_4 +7 assign_mix_7_1_4
  +9 assign_mix_9_1_4 +11 assign_mix_11_1_4 +13 assign_mix_13_1_4 +15 assign_mix_15_1_4 +17 assign_mix_17_1_4
  +19 assign_mix_19_1_4 -1 assign_mix_1_1_5 -3 assign_mix_3_1_5 -5 assign_mix_5_1_5 -7 assign_mix_7_1_5
  -9 assign_mix_9_1_5 -11 assign_mix_11_1_5 -13 assign_mix_13_1_5 -15 assign_mix_15_1_5 -17 assign_mix_17_1_5
  -19 assign_mix_19_1_5 +10000 mix_pos_used_1_4 +10000 mix_pos_used_1_5 <= +20000
 mix_order_symmetry_1_5: +1 assign_mix_1_1_5 +3 assign_mix_3_1_5 +5 assign_mix_5_1_5 +7 assign_mix_7_1_5
  +9 assign_mix_9_1_5 +11 assign_mix_11_1_5 +13 assign_mix_13_1_5 +15 assign_mix_15_1_5 +17 assign_mix_17_1_5
  +19 assign_mix_19_1_5 -1 assign_mix_1_1_6 -3 assign_mix_3_1_6 -5 assign_mix_5_1_6 -7 assign_mix_7_1_6
  -9 assign_mix_9_1_6 -11 assign_mix_11_1_6 -13 assign_mix_13_1_6 -15 assign_mix_15_1_6 -17 assign_mix_17_1_6
  -19 assign_mix_19_1_6 +10000 mix_pos_used_1_5 +10000 mix_pos_used_1_6 <= +20000
 mix_order_symmetry_1_6: +1 assign_mix_1_1_6 +3 assign_mix_3_1_6 +5 assign_mix_5_1_6 +7 assign_mix_7_1_6
  +9 assign_mix_9_1_6 +11 assign_mix_11_1_6 +13 assign_mix_13_1_6 +15 assign_mix_15_1_6 +17 assign_mix_17_1_6
  +19 assign_mix_19_1_6 -1 assign_mix_1_1_7 -3 assign_mix_3_1_7 -5 assign_mix_5_1_7 -7 assign_mix_7_1_7
  -9 assign_mix_9_1_7 -11 assign_mix_11_1_7 -13 assign_mix_13_1_7 -15 assign_mix_15_1_7 -17 assign_mix_17_1_7
  -19 assign_mix_19_1_7 +10000 mix_pos_used_1_6 +10000 mix_pos_used_1_7 <= +20000
 mix_order_symmetry_1_7: +1 assign_mix_1_1_7 +3 assign_mix_3_1_7 +5 assign_mix_5_1_7 +7 assign_mix_7_1_7
  +9 assign_mix_9_1_7 +11 assign_mix_11_1_7 +13 assign_mix_13_1_7 +15 assign_mix_15_1_7 +17 assign_mix_17_1_7
  +19 assign_mix_19_1_7 -1 assign_mix_1_1_8 -3 assign_mix_3_1_8 -5 assign_mix_5_1_8 -7 assign_mix_7_1_8
  -9 assign_mix_9_1_8 -11 assign_mix_11_1_8 -13 assign_mix_13_1_8 -15 assign_mix_15_1_8 -17 assign_mix_17_1_8
  -19 assign_mix_19_1_8 +10000 mix_pos_used_1_7 +10000 mix_pos_used_1_8 <= +20000
 mix_order_symmetry_1_8: +1 assign_mix_1_1_8 +3 assign_mix_3_1_8 +5 assign_mix_5_1_8 +7 assign_mix_7_1_8
  +9 assign_mix_9_1_8 +11 assign_mix_11_1_8 +13 assign_mix_13_1_8 +15 assign_mix_15_1_8 +17 assign_mix_17_1_8
  +19 assign_mix_19_1_8 -1 assign_mix_1_1_9 -3 assign_mix_3_1_9 -5 assign_mix_5_1_9 -7 assign_mix_7_1_9
  -9 assign_mix_9_1_9 -11 assign_mix_11_1_9 -13 assign_mix_13_1_9 -15 assign_mix_15_1_9 -17 assign_mix_17_1_9
  -19 assign_mix_19_1_9 +10000 mix_pos_used_1_8 +10000 mix_pos_used_1_9 <= +20000
 mix_order_symmetry_1_9: +1 assign_mix_1_1_9 +3 assign_mix_3_1_9 +5 assign_mix_5_1_9 +7 assign_mix_7_1_9
  +9 assign_mix_9_1_9 +11 assign_mix_11_1_9 +13 assign_mix_13_1_9 +15 assign_mix_15_1_9 +17 assign_mix_17_1_9
  +19 assign_mix_19_1_9 -1 assign_mix_1_1_10 -3 assign_mix_3_1_10 -5 assign_mix_5_1_10 -7 assign_mix_7_1_10
  -9 assign_mix_9_1_10 -11 assign_mix_11_1_10 -13 assign_mix_13_1_10 -15 assign_mix_15_1_10 -17 assign_mix_17_1_10
  -19 assign_mix_19_1_10 +10000 mix_pos_used_1_9 +10000 mix_pos_used_1_10 <= +20000
 full_order_symmetry_2_1: +2 assign_full_2_2_1 +4 assign_full_4_2_1 +6 assign_full_6_2_1 +8 assign_full_8_2_1
  +10 assign_full_10_2_1 +12 assign_full_12_2_1 +14 assign_full_14_2_1 +16 assign_full_16_2_1 +18 assign_full_18_2_1
  +20 assign_full_20_2_1 -2 assign_full_2_2_2 -4 assign_full_4_2_2 -6 assign_full_6_2_2 -8 assign_full_8_2_2
  -10 assign_full_10_2_2 -12 assign_full_12_2_2 -14 assign_full_14_2_2 -16 assign_full_16_2_2 -18 assign_full_18_2_2
  -20 assign_full_20_2_2 +10000 full_slot_used_2_1 +10000 full_slot_used_2_2 <= +20000
 full_order_symmetry_2_2: +2 assign_full_2_2_2 +4 assign_full_4_2_2 +6 assign_full_6_2_2 +8 assign_full_8_2_2
  +10 assign_full_10_2_2 +12 assign_full_12_2_2 +14 assign_full_14_2_2 +16 assign_full_16_2_2 +18 assign_full_18_2_2
  +20 assign_full_20_2_2 -2 assign_full_2_2_3 -4 assign_full_4_2_3 -6 assign_full_6_2_3 -8 assign_full_8_2_3
  -10 assign_full_10_2_3 -12 assign_full_12_2_3 -14 assign_full_14_2_3 -16 assign_full_16_2_3 -18 assign_full_18_2_3
  -20 assign_full_20_2_3 +10000 full_slot_used_2_2 +10000 full_slot_used_2_3 <= +20000
 full_order_symmetry_2_3: +2 assign_full_2_2_3 +4 assign_full_4_2_3 +6 assign_full_6_2_3 +8 assign_full_8_2_3
  +10 assign_full_10_2_3 +12 assign_full_12_2_3 +14 assign_full_14_2_3 +16 assign_full_16_2_3 +18 assign_full_18_2_3
  +20 assign_full_20_2_3 -2 assign_full_2_2_4 -4 assign_full_4_2_4 -6 assign_full_6_2_4 -8 assign_full_8_2_4
  -10 assign_full_10_2_4 -12 assign_full_12_2_4 -14 assign_full_14_2_4 -16 assign_full_16_2_4 -18 assign_full_18_2_4
  -20 assign_full_20_2_4 +10000 full_slot_used_2_3 +10000 full_slot_used_2_4 <= +20000
 full_order_symmetry_2_4: +2 assign_full_2_2_4 +4 assign_full_4_2_4 +6 assign_full_6_2_4 +8 assign_full_8_2_4
  +10 assign_full_10_2_4 +12 assign_full_12_2_4 +14 assign_full_14_2_4 +16 assign_full_16_2_4 +18 assign_full_18_2_4
  +20 assign_full_20_2_4 -2 assign_full_2_2_5 -4 assign_full_4_2_5 -6 assign_full_6_2_5 -8 assign_full_8_2_5
  -10 assign_full_10_2_5 -12 assign_full_12_2_5 -14 assign_full_14_2_5 -16 assign_full_16_2_5 -18 assign_full_18_2_5
  -20 assign_full_20_2_5 +10000 full_slot_used_2_4 +10000 full_slot_used_2_5 <= +20000
 full_order_symmetry_2_5: +2 assign_full_2_2_5 +4 assign_full_4_2_5 +6 assign_full_6_2_5 +8 assign_full_8_2_5
  +10 assign_full_10_2_5 +12 assign_full_12_2_5 +14 assign_full_14_2_5 +16 assign_full_16_2_5 +18 assign_full_18_2_5
  +20 assign_full_20_2_5 -2 assign_full_2_2_6 -4 assign_full_4_2_6 -6 assign_full_6_2_6 -8 assign_full_8_2_6
  -10 assign_full_10_2_6 -12 assign_full_12_2_6 -14 assign_full_14_2_6 -16 assign_full_16_2_6 -18 assign_full_18_2_6
  -20 assign_full_20_2_6 +10000 full_slot_used_2_5 +10000 full_slot_used_2_6 <= +20000
 full_order_symmetry_2_6: +2 assign_full_2_2_6 +4 assign_full_4_2_6 +6 assign_full_6_2_6 +8 assign_full_8_2_6
  +10 assign_full_10_2_6 +12 assign_full_12_2_6 +14 assign_full_14_2_6 +16 assign_full_16_2_6 +18 assign_full_18_2_6
  +20 assign_full_20_2_6 -2 assign_full_2_2_7 -4 assign_full_4_2_7 -6 assign_full_6_2_7 -8 assign_full_8_2_7
  -10 assign_full_10_2_7 -12 assign_full_12_2_7 -14 assign_full_14_2_7 -16 assign_full_16_2_7 -18 assign_full_18_2_7
  -20 assign_full_20_2_7 +10000 full_slot_used_2_6 +10000 full_slot_used_2_7 <= +20000
 full_order_symmetry_2_7: +2 assign_full_2_2_7 +4 assign_full_4_2_7 +6 assign_full_6_2_7 +8 assign_full_8_2_7
  +10 assign_full_10_2_7 +12 assign_full_12_2_7 +14 assign_full_14_2_7 +16 assign_full_16_2_7 +18 assign_full_18_2_7
  +20 assign_full_20_2_7 -2 assign_full_2_2_8 -4 assign_full_4_2_8 -6 assign_full_6_2_8 -8 assign_full_8_2_8
  -10 assign_full_10_2_8 -12 assign_full_12_2_8 -14 assign_full_14_2_8 -16 assign_full_16_2_8 -18 assign_full_18_2_8
  -20 assign_full_20_2_8 +10000 full_slot_used_2_7 +10000 full_slot_used_2_8 <= +20000
 full_order_symmetry_2_8: +2 assign_full_2_2_8 +4 assign_full_4_2_8 +6 assign_full_6_2_8 +8 assign_full_8_2_8
  +10 assign_full_10_2_8 +12 assign_full_12_2_8 +14 assign_full_14_2_8 +16 assign_full_16_2_8 +18 assign_full_18_2_8
  +20 assign_full_20_2_8 -2 assign_full_2_2_9 -4 assign_full_4_2_9 -6 assign_full_6_2_9 -8 assign_full_8_2_9
  -10 assign_full_10_2_9 -12 assign_full_12_2_9 -14 assign_full_14_2_9 -16 assign_full_16_2_9 -18 assign_full_18_2_9
  -20 assign_full_20_2_9 +10000 full_slot_used_2_8 +10000 full_slot_used_2_9 <= +20000
 full_order_symmetry_2_9: +2 assign_full_2_2_9 +4 assign_full_4_2_9 +6 assign_full_6_2_9 +8 assign_full_8_2_9
  +10 assign_full_10_2_9 +12 assign_full_12_2_9 +14 assign_full_14_2_9 +16 assign_full_16_2_9 +18 assign_full_18_2_9
  +20 assign_full_20_2_9 -2 assign_full_2_2_10 -4 assign_full_4_2_10 -6 assign_full_6_2_10 -8 assign_full_8_2_10
  -10 assign_full_10_2_10 -12 assign_full_12_2_10 -14 assign_full_14_2_10 -16 assign_full_16_2_10 -18 assign_full_18_2_10
  -20 assign_full_20_2_10 +10000 full_slot_used_2_9 +10000 full_slot_used_2_10 <= +20000
 mix_order_symmetry_2_1: +1 assign_mix_1_2_1 +3 assign_mix_3_2_1 +5 assign_mix_5_2_1 +7 assign_mix_7_2_1
  +9 assign_mix_9_2_1 +11 assign_mix_11_2_1 +13 assign_mix_13_2_1 +15 assign_mix_15_2_1 +17 assign_mix_17_2_1
  +19 assign_mix_19_2_1 -1 assign_mix_1_2_2 -3 assign_mix_3_2_2 -5 assign_mix_5_2_2 -7 assign_mix_7_2_2
  -9 assign_mix_9_2_2 -11 assign_mix_11_2_2 -13 assign_mix_13_2_2 -15 assign_mix_15_2_2 -17 assign_mix_17_2_2
  -19 assign_mix_19_2_2 +10000 mix_pos_used_2_1 +10000 mix_pos_used_2_2 <= +20000
 mix_order_symmetry_2_2: +1 assign_mix_1_2_2 +3 assign_mix_3_2_2 +5 assign_mix_5_2_2 +7 assign_mix_7_2_2
  +9 assign_mix_9_2_2 +11 assign_mix_11_2_2 +13 assign_mix_13_2_2 +15 assign_mix_15_2_2 +17 assign_mix_17_2_2
  +19 assign_mix_19_2_2 -1 assign_mix_1_2_3 -3 assign_mix_3_2_3 -5 assign_mix_5_2_3 -7 assign_mix_7_2_3
  -9 assign_mix_9_2_3 -11 assign_mix_11_2_3 -13 assign_mix_13_2_3 -15 assign_mix_15_2_3 -17 assign_mix_17_2_3
  -19 assign_mix_19_2_3 +10000 mix_pos_used_2_2 +10000 mix_pos_used_2_3 <= +20000
 mix_order_symmetry_2_3: +1 assign_mix_1_2_3 +3 assign_mix_3_2_3 +5 assign_mix_5_2_3 +7 assign_mix_7_2_3
  +9 assign_mix_9_2_3 +11 assign_mix_11_2_3 +13 assign_mix_13_2_3 +15 assign_mix_15_2_3 +17 assign_mix_17_2_3
  +19 assign_mix_19_2_3 -1 assign_mix_1_2_4 -3 assign_mix_3_2_4 -5 assign_mix_5_2_4 -7 assign_mix_7_2_4
  -9 assign_mix_9_2_4 -11 assign_mix_11_2_4 -13 assign_mix_13_2_4 -15 assign_mix_15_2_4 -17 assign_mix_17_2_4
  -19 assign_mix_19_2_4 +10000 mix_pos_used_2_3 +10000 mix_pos_used_2_4 <= +20000
 mix_order_symmetry_2_4: +1 assign_mix_1_2_4 +3 assign_mix_3_2_4 +5 assign_mix_5_2_4 +7 assign_mix_7_2_4
  +9 assign_mix_9_2_4 +11 assign_mix_11_2_4 +13 assign_mix_13_2_4 +15 assign_mix_15_2_4 +17 assign_mix_17_2_4
  +19 assign_mix_19_2_4 -1 assign_mix_1_2_5 -3 assign_mix_3_2_5 -5 assign_mix_5_2_5 -7 assign_mix_7_2_5
  -9 assign_mix_9_2_5 -11 assign_mix_11_2_5 -13 assign_mix_13_2_5 -15 assign_mix_15_2_5 -17 assign_mix_17_2_5
  -19 assign_mix_19_2_5 +10000 mix_pos_used_2_4 +10000 mix_pos_used_2_5 <= +20000
 mix_order_symmetry_2_5: +1 assign_mix_1_2_5 +3 assign_mix_3_2_5 +5 assign_mix_5_2_5 +7 assign_mix_7_2_5
  +9 assign_mix_9_2_5 +11 assign_mix_11_2_5 +13 assign_mix_13_2_5 +15 assign_mix_15_2_5 +17 assign_mix_17_2_5
  +19 assign_mix_19_2_5 -1 assign_mix_1_2_6 -3 assign_mix_3_2_6 -5 assign_mix_5_2_6 -7 assign_mix_7_2_6
  -9 assign_mix_9_2_6 -11 assign_mix_11_2_6 -13 assign_mix_13_2_6 -15 assign_mix_15_2_6 -17 assign_mix_17_2_6
  -19 assign_mix_19_2_6 +10000 mix_pos_used_2_5 +10000 mix_pos_used_2_6 <= +20000
 mix_order_symmetry_2_6: +1 assign_mix_1_2_6 +3 assign_mix_3_2_6 +5 assign_mix_5_2_6 +7 assign_mix_7_2_6
  +9 assign_mix_9_2_6 +11 assign_mix_11_2_6 +13 assign_mix_13_2_6 +15 assign_mix_15_2_6 +17 assign_mix_17_2_6
  +19 assign_mix_19_2_6 -1 assign_mix_1_2_7 -3 assign_mix_3_2_7 -5 assign_mix_5_2_7 -7 assign_mix_7_2_7
  -9 assign_mix_9_2_7 -11 assign_mix_11_2_7 -13 assign_mix_13_2_7 -15 assign_mix_15_2_7 -17 assign_mix_17_2_7
  -19 assign_mix_19_2_7 +10000 mix_pos_used_2_6 +10000 mix_pos_used_2_7 <= +20000
 mix_order_symmetry_2_7: +1 assign_mix_1_2_7 +3 assign_mix_3_2_7 +5 assign_mix_5_2_7 +7 assign_mix_7_2_7
  +9 assign_mix_9_2_7 +11 assign_mix_11_2_7 +13 assign_mix_13_2_7 +15 assign_mix_15_2_7 +17 assign_mix_17_2_7
  +19 assign_mix_19_2_7 -1 assign_mix_1_2_8 -3 assign_mix_3_2_8 -5 assign_mix_5_2_8 -7 assign_mix_7_2_8
  -9 assign_mix_9_2_8 -11 assign_mix_11_2_8 -13 assign_mix_13_2_8 -15 assign_mix_15_2_8 -17 assign_mix_17_2_8
  -19 assign_mix_19_2_8 +10000 mix_pos_used_2_7 +10000 mix_pos_used_2_8 <= +20000
 mix_order_symmetry_2_8: +1 assign_mix_1_2_8 +3 assign_mix_3_2_8 +5 assign_mix_5_2_8 +7 assign_mix_7_2_8
  +9 assign_mix_9_2_8 +11 assign_mix_11_2_8 +13 assign_mix_13_2_8 +15 assign_mix_15_2_8 +17 assign_mix_17_2_8
  +19 assign_mix_19_2_8 -1 assign_mix_1_2_9 -3 assign_mix_3_2_9 -5 assign_mix_5_2_9 -7 assign_mix_7_2_9
  -9 assign_mix_9_2_9 -11 assign_mix_11_2_9 -13 assign_mix_13_2_9 -15 assign_mix_15_2_9 -17 assign_mix_17_2_9
  -19 assign_mix_19_2_9 +10000 mix_pos_used_2_8 +10000 mix_pos_used_2_9 <= +20000
 mix_order_symmetry_2_9: +1 assign_mix_1_2_9 +3 assign_mix_3_2_9 +5 assign_mix_5_2_9 +7 assign_mix_7_2_9
  +9 assign_mix_9_2_9 +11 assign_mix_11_2_9 +13 assign_mix_13_2_9 +15 assign_mix_15_2_9 +17 assign_mix_17_2_9
  +19 assign_mix_19_2_9 -1 assign_mix_1_2_10 -3 assign_mix_3_2_10 -5 assign_mix_5_2_10 -7 assign_mix_7_2_10
  -9 assign_mix_9_2_10 -11 assign_mix_11_2_10 -13 assign_mix_13_2_10 -15 assign_mix_15_2_10 -17 assign_mix_17_2_10
  -19 assign_mix_19_2_10 +10000 mix_pos_used_2_9 +10000 mix_pos_used_2_10 <= +20000
 pm_activity_symmetry: +1 full_slot_used_1_1 +1 full_slot_used_1_2 +1 full_slot_used_1_3 +1 full_slot_used_1_4
  +1 full_slot_used_1_5 +1 full_slot_used_1_6 +1 full_slot_used_1_7 +1 full_slot_used_1_8 +1 full_slot_used_1_9
  +1 full_slot_used_1_10 +1 mix_pos_used_1_1 +1 mix_pos_used_1_2 +1 mix_pos_used_1_3 +1 mix_pos_used_1_4
  +1 mix_pos_used_1_5 +1 mix_pos_used_1_6 +1 mix_pos_used_1_7 +1 mix_pos_used_1_8 +1 mix_pos_used_1_9
  +1 mix_pos_used_1_10 -1 full_slot_used_2_1 -1 full_slot_used_2_2 -1 full_slot_used_2_3 -1 full_slot_used_2_4
  -1 full_slot_used_2_5 -1 full_slot_used_2_6 -1 full_slot_used_2_7 -1 full_slot_used_2_8 -1 full_slot_used_2_9
  -1 full_slot_used_2_10 -1 mix_pos_used_2_1 -1 mix_pos_used_2_2 -1 mix_pos_used_2_3 -1 mix_pos_used_2_4
  -1 mix_pos_used_2_5 -1 mix_pos_used_2_6 -1 mix_pos_used_2_7 -1 mix_pos_used_2_8 -1 mix_pos_used_2_9
  -1 mix_pos_used_2_10 >= +0
Bounds
 0 <= assign_full_2_1_1 <= 1
 0 <= assign_full_2_1_2 <= 1
 0 <= assign_full_2_1_3 <= 1
 0 <= assign_full_2_1_4 <= 1
 0 <= assign_full_2_1_5 <= 1
 0 <= assign_full_2_1_6 <= 1
 0 <= assign_full_2_1_7 <= 1
 0 <= assign_full_2_1_8 <= 1
 0 <= assign_full_2_1_9 <= 1
 0 <= assign_full_2_1_10 <= 1
 0 <= assign_full_2_2_1 <= 1
 0 <= assign_full_2_2_2 <= 1
 0 <= assign_full_2_2_3 <= 1
 0 <= assign_full_2_2_4 <= 1
 0 <= assign_full_2_2_5 <= 1
 0 <= assign_full_2_2_6 <= 1
 0 <= assign_full_2_2_7 <= 1
 0 <= assign_full_2_2_8 <= 1
 0 <= assign_full_2_2_9 <= 1
 0 <= assign_full_2_2_10 <= 1
 0 <= assign_full_4_1_1 <= 1
 0 <= assign_full_4_1_2 <= 1
 0 <= assign_full_4_1_3 <= 1
 0 <= assign_full_4_1_4 <= 1
 0 <= assign_full_4_1_5 <= 1
 0 <= assign_full_4_1_6 <= 1
 0 <= assign_full_4_1_7 <= 1
 0 <= assign_full_4_1_8 <= 1
 0 <= assign_full_4_1_9 <= 1
 0 <= assign_full_4_1_10 <= 1
 0 <= assign_full_4_2_1 <= 1
 0 <= assign_full_4_2_2 <= 1
 0 <= assign_full_4_2_3 <= 1
 0 <= assign_full_4_2_4 <= 1
 0 <= assign_full_4_2_5 <= 1
 0 <= assign_full_4_2_6 <= 1
 0 <= assign_full_4_2_7 <= 1
 0 <= assign_full_4_2_8 <= 1
 0 <= assign_full_4_2_9 <= 1
 0 <= assign_full_4_2_10 <= 1
 0 <= assign_full_6_1_1 <= 1
 0 <= assign_full_6_1_2 <= 1
 0 <= assign_full_6_1_3 <= 1
 0 <= assign_full_6_1_4 <= 1
 0 <= assign_full_6_1_5 <= 1
 0 <= assign_full_6_1_6 <= 1
 0 <= assign_full_6_1_7 <= 1
 0 <= assign_full_6_1_8 <= 1
 0 <= assign_full_6_1_9 <= 1
 0 <= assign_full_6_1_10 <= 1
 0 <= assign_full_6_2_1 <= 1
 0 <= assign_full_6_2_2 <= 1
 0 <= assign_full_6_2_3 <= 1
 0 <= assign_full_6_2_4 <= 1
 0 <= assign_full_6_2_5 <= 1
 0 <= assign_full_6_2_6 <= 1
 0 <= assign_full_6_2_7 <= 1
 0 <= assign_full_6_2_8 <= 1
 0 <= assign_full_6_2_9 <= 1
 0 <= assign_full_6_2_10 <= 1
 0 <= assign_full_8_1_1 <= 1
 0 <= assign_full_8_1_2 <= 1
 0 <= assign_full_8_1_3 <= 1
 0 <= assign_full_8_1_4 <= 1
 0 <= assign_full_8_1_5 <= 1
 0 <= assign_full_8_1_6 <= 1
 0 <= assign_full_8_1_7 <= 1
 0 <= assign_full_8_1_8 <= 1
 0 <= assign_full_8_1_9 <= 1
 0 <= assign_full_8_1_10 <= 1
 0 <= assign_full_8_2_1 <= 1
 0 <= assign_full_8_2_2 <= 1
 0 <= assign_full_8_2_3 <= 1
 0 <= assign_full_8_2_4 <= 1
 0 <= assign_full_8_2_5 <= 1
 0 <= assign_full_8_2_6 <= 1
 0 <= assign_full_8_2_7 <= 1
 0 <= assign_full_8_2_8 <= 1
 0 <= assign_full_8_2_9 <= 1
 0 <= assign_full_8_2_10 <= 1
 0 <= assign_full_10_1_1 <= 1
 0 <= assign_full_10_1_2 <= 1
 0 <= assign_full_10_1_3 <= 1
 0 <= assign_full_10_1_4 <= 1
 0 <= assign_full_10_1_5 <= 1
 0 <= assign_full_10_1_6 <= 1
 0 <= assign_full_10_1_7 <= 1
 0 <= assign_full_10_1_8 <= 1
 0 <= assign_full_10_1_9 <= 1
 0 <= assign_full_10_1_10 <= 1
 0 <= assign_full_10_2_1 <= 1
 0 <= assign_full_10_2_2 <= 1
 0 <= assign_full_10_2_3 <= 1
 0 <= assign_full_10_2_4 <= 1
 0 <= assign_full_10_2_5 <= 1
 0 <= assign_full_10_2_6 <= 1
 0 <= assign_full_10_2_7 <= 1
 0 <= assign_full_10_2_8 <= 1
 0 <= assign_full_10_2_9 <= 1
 0 <= assign_full_10_2_10 <= 1
 0 <= assign_full_12_1_1 <= 1
 0 <= assign_full_12_1_2 <= 1
 0 <= assign_full_12_1_3 <= 1
 0 <= assign_full_12_1_4 <= 1
 0 <= assign_full_12_1_5 <= 1
 0 <= assign_full_12_1_6 <= 1
 0 <= assign_full_12_1_7 <= 1
 0 <= assign_full_12_1_8 <= 1
 0 <= assign_full_12_1_9 <= 1
 0 <= assign_full_12_1_10 <= 1
 0 <= assign_full_12_2_1 <= 1
 0 <= assign_full_12_2_2 <= 1
 0 <= assign_full_12_2_3 <= 1
 0 <= assign_full_12_2_4 <= 1
 0 <= assign_full_12_2_5 <= 1
 0 <= assign_full_12_2_6 <= 1
 0 <= assign_full_12_2_7 <= 1
 0 <= assign_full_12_2_8 <= 1
 0 <= assign_full_12_2_9 <= 1
 0 <= assign_full_12_2_10 <= 1
 0 <= assign_full_14_1_1 <= 1
 0 <= assign_full_14_1_2 <= 1
 0 <= assign_full_14_1_3 <= 1
 0 <= assign_full_14_1_4 <= 1
 0 <= assign_full_14_1_5 <= 1
 0 <= assign_full_14_1_6 <= 1
 0 <= assign_full_14_1_7 <= 1
 0 <= assign_full_14_1_8 <= 1
 0 <= assign_full_14_1_9 <= 1
 0 <= assign_full_14_1_10 <= 1
 0 <= assign_full_14_2_1 <= 1
 0 <= assign_full_14_2_2 <= 1
 0 <= assign_full_14_2_3 <= 1
 0 <= assign_full_14_2_4 <= 1
 0 <= assign_full_14_2_5 <= 1
 0 <= assign_full_14_2_6 <= 1
 0 <= assign_full_14_2_7 <= 1
 0 <= assign_full_14_2_8 <= 1
 0 <= assign_full_14_2_9 <= 1
 0 <= assign_full_14_2_10 <= 1
 0 <= assign_full_16_1_1 <= 1
 0 <= assign_full_16_1_2 <= 1
 0 <= assign_full_16_1_3 <= 1
 0 <= assign_full_16_1_4 <= 1
 0 <= assign_full_16_1_5 <= 1
 0 <= assign_full_16_1_6 <= 1
 0 <= assign_full_16_1_7 <= 1
 0 <= assign_full_16_1_8 <= 1
 0 <= assign_full_16_1_9 <= 1
 0 <= assign_full_16_1_10 <= 1
 0 <= assign_full_16_2_1 <= 1
 0 <= assign_full_16_2_2 <= 1
 0 <= assign_full_16_2_3 <= 1
 0 <= assign_full_16_2_4 <= 1
 0 <= assign_full_16_2_5 <= 1
 0 <= assign_full_16_2_6 <= 1
 0 <= assign_full_16_2_7 <= 1
 0 <= assign_full_16_2_8 <= 1
 0 <= assign_full_16_2_9 <= 1
 0 <= assign_full_16_2_10 <= 1
 0 <= assign_full_18_1_1 <= 1
 0 <= assign_full_18_1_2 <= 1
 0 <= assign_full_18_1_3 <= 1
 0 <= assign_full_18_1_4 <= 1
 0 <= assign_full_18_1_5 <= 1
 0 <= assign_full_18_1_6 <= 1
 0 <= assign_full_18_1_7 <= 1
 0 <= assign_full_18_1_8 <= 1
 0 <= assign_full_18_1_9 <= 1
 0 <= assign_full_18_1_10 <= 1
 0 <= assign_full_18_2_1 <= 1
 0 <= assign_full_18_2_2 <= 1
 0 <= assign_full_18_2_3 <= 1
 0 <= assign_full_18_2_4 <= 1
 0 <= assign_full_18_2_5 <= 1
 0 <= assign_full_18_2_6 <= 1
 0 <= assign_full_18_2_7 <= 1
 0 <= assign_full_18_2_8 <= 1
 0 <= assign_full_18_2_9 <= 1
 0 <= assign_full_18_2_10 <= 1
 0 <= assign_full_20_1_1 <= 1
 0 <= assign_full_20_1_2 <= 1
 0 <= assign_full_20_1_3 <= 1
 0 <= assign_full_20_1_4 <= 1
 0 <= assign_full_20_1_5 <= 1
 0 <= assign_full_20_1_6 <= 1
 0 <= assign_full_20_1_7 <= 1
 0 <= assign_full_20_1_8 <= 1
 0 <= assign_full_20_1_9 <= 1
 0 <= assign_full_20_1_10 <= 1
 0 <= assign_full_20_2_1 <= 1
 0 <= assign_full_20_2_2 <= 1
 0 <= assign_full_20_2_3 <= 1
 0 <= assign_full_20_2_4 <= 1
 0 <= assign_full_20_2_5 <= 1
 0 <= assign_full_20_2_6 <= 1
 0 <= assign_full_20_2_7 <= 1
 0 <= assign_full_20_2_8 <= 1
 0 <= assign_full_20_2_9 <= 1
 0 <= assign_full_20_2_10 <= 1
 0 <= full_slot_used_1_1 <= 1
 0 <= full_slot_used_1_2 <= 1
 0 <= full_slot_used_1_3 <= 1
 0 <= full_slot_used_1_4 <= 1
 0 <= full_slot_used_1_5 <= 1
 0 <= full_slot_used_1_6 <= 1
 0 <= full_slot_used_1_7 <= 1
 0 <= full_slot_used_1_8 <= 1
 0 <= full_slot_used_1_9 <= 1
 0 <= full_slot_used_1_10 <= 1
 0 <= full_slot_used_2_1 <= 1
 0 <= full_slot_used_2_2 <= 1
 0 <= full_slot_used_2_3 <= 1
 0 <= full_slot_used_2_4 <= 1
 0 <= full_slot_used_2_5 <= 1
 0 <= full_slot_used_2_6 <= 1
 0 <= full_slot_used_2_7 <= 1
 0 <= full_slot_used_2_8 <= 1
 0 <= full_slot_used_2_9 <= 1
 0 <= full_slot_used_2_10 <= 1
 0 <= full_pec_pairs_1_1 <= 1
 0 <= full_pec_pairs_1_2 <= 1
 0 <= full_pec_pairs_1_3 <= 1
 0 <= full_pec_pairs_1_4 <= 1
 0 <= full_pec_pairs_1_5 <= 1
 0 <= full_pec_pairs_1_6 <= 1
 0 <= full_pec_pairs_1_7 <= 1
 0 <= full_pec_pairs_1_8 <= 1
 0 <= full_pec_pairs_1_9 <= 1
 0 <= full_pec_pairs_1_10 <= 1
 0 <= full_pec_pairs_2_1 <= 1
 0 <= full_pec_pairs_2_2 <= 1
 0 <= full_pec_pairs_2_3 <= 1
 0 <= full_pec_pairs_2_4 <= 1
 0 <= full_pec_pairs_2_5 <= 1
 0 <= full_pec_pairs_2_6 <= 1
 0 <= full_pec_pairs_2_7 <= 1
 0 <= full_pec_pairs_2_8 <= 1
 0 <= full_pec_pairs_2_9 <= 1
 0 <= full_pec_pairs_2_10 <= 1
 0 <= full_after_mix_1_1 <= 1
 0 <= full_after_mix_1_2 <= 1
 0 <= full_after_mix_1_3 <= 1
 0 <= full_after_mix_1_4 <= 1
 0 <= full_after_mix_1_5 <= 1
 0 <= full_after_mix_1_6 <= 1
 0 <= full_after_mix_1_7 <= 1
 0 <= full_after_mix_1_8 <= 1
 0 <= full_after_mix_1_9 <= 1
 0 <= full_after_mix_1_10 <= 1
 0 <= full_after_mix_2_1 <= 1
 0 <= full_after_mix_2_2 <= 1
 0 <= full_after_mix_2_3 <= 1
 0 <= full_after_mix_2_4 <= 1
 0 <= full_after_mix_2_5 <= 1
 0 <= full_after_mix_2_6 <= 1
 0 <= full_after_mix_2_7 <= 1
 0 <= full_after_mix_2_8 <= 1
 0 <= full_after_mix_2_9 <= 1
 0 <= full_after_mix_2_10 <= 1
 0 <= assign_mix_1_1_1 <= 1
 0 <= assign_mix_1_1_2 <= 1
 0 <= assign_mix_1_1_3 <= 1
 0 <= assign_mix_1_1_4 <= 1
 0 <= assign_mix_1_1_5 <= 1
 0 <= assign_mix_1_1_6 <= 1
 0 <= assign_mix_1_1_7 <= 1
 0 <= assign_mix_1_1_8 <= 1
 0 <= assign_mix_1_1_9 <= 1
 0 <= assign_mix_1_1_10 <= 1
 0 <= assign_mix_1_2_1 <= 1
 0 <= assign_mix_1_2_2 <= 1
 0 <= assign_mix_1_2_3 <= 1
 0 <= assign_mix_1_2_4 <= 1
 0 <= assign_mix_1_2_5 <= 1
 0 <= assign_mix_1_2_6 <= 1
 0 <= assign_mix_1_2_7 <= 1
 0 <= assign_mix_1_2_8 <= 1
 0 <= assign_mix_1_2_9 <= 1
 0 <= assign_mix_1_2_10 <= 1
 0 <= assign_mix_3_1_1 <= 1
 0 <= assign_mix_3_1_2 <= 1
 0 <= assign_mix_3_1_3 <= 1
 0 <= assign_mix_3_1_4 <= 1
 0 <= assign_mix_3_1_5 <= 1
 0 <= assign_mix_3_1_6 <= 1
 0 <= assign_mix_3_1_7 <= 1
 0 <= assign_mix_3_1_8 <= 1
 0 <= assign_mix_3_1_9 <= 1
 0 <= assign_mix_3_1_10 <= 1
 0 <= assign_mix_3_2_1 <= 1
 0 <= assign_mix_3_2_2 <= 1
 0 <= assign_mix_3_2_3 <= 1
 0 <= assign_mix_3_2_4 <= 1
 0 <= assign_mix_3_2_5 <= 1
 0 <= assign_mix_3_2_6 <= 1
 0 <= assign_mix_3_2_7 <= 1
 0 <= assign_mix_3_2_8 <= 1
 0 <= assign_mix_3_2_9 <= 1
 0 <= assign_mix_3_2_10 <= 1
 0 <= assign_mix_5_1_1 <= 1
 0 <= assign_mix_5_1_2 <= 1
 0 <= assign_mix_5_1_3 <= 1
 0 <= assign_mix_5_1_4 <= 1
 0 <= assign_mix_5_1_5 <= 1
 0 <= assign_mix_5_1_6 <= 1
 0 <= assign_mix_5_1_7 <= 1
 0 <= assign_mix_5_1_8 <= 1
 0 <= assign_mix_5_1_9 <= 1
 0 <= assign_mix_5_1_10 <= 1
 0 <= assign_mix_5_2_1 <= 1
 0 <= assign_mix_5_2_2 <= 1
 0 <= assign_mix_5_2_3 <= 1
 0 <= assign_mix_5_2_4 <= 1
 0 <= assign_mix_5_2_5 <= 1
 0 <= assign_mix_5_2_6 <= 1
 0 <= assign_mix_5_2_7 <= 1
 0 <= assign_mix_5_2_8 <= 1
 0 <= assign_mix_5_2_9 <= 1
 0 <= assign_mix_5_2_10 <= 1
 0 <= assign_mix_7_1_1 <= 1
 0 <= assign_mix_7_1_2 <= 1
 0 <= assign_mix_7_1_3 <= 1
 0 <= assign_mix_7_1_4 <= 1
 0 <= assign_mix_7_1_5 <= 1
 0 <= assign_mix_7_1_6 <= 1
 0 <= assign_mix_7_1_7 <= 1
 0 <= assign_mix_7_1_8 <= 1
 0 <= assign_mix_7_1_9 <= 1
 0 <= assign_mix_7_1_10 <= 1
 0 <= assign_mix_7_2_1 <= 1
 0 <= assign_mix_7_2_2 <= 1
 0 <= assign_mix_7_2_3 <= 1
 0 <= assign_mix_7_2_4 <= 1
 0 <= assign_mix_7_2_5 <= 1
 0 <= assign_mix_7_2_6 <= 1
 0 <= assign_mix_7_2_7 <= 1
 0 <= assign_mix_7_2_8 <= 1
 0 <= assign_mix_7_2_9 <= 1
 0 <= assign_mix_7_2_10 <= 1
 0 <= assign_mix_9_1_1 <= 1
 0 <= assign_mix_9_1_2 <= 1
 0 <= assign_mix_9_1_3 <= 1
 0 <= assign_mix_9_1_4 <= 1
 0 <= assign_mix_9_1_5 <= 1
 0 <= assign_mix_9_1_6 <= 1
 0 <= assign_mix_9_1_7 <= 1
 0 <= assign_mix_9_1_8 <= 1
 0 <= assign_mix_9_1_9 <= 1
 0 <= assign_mix_9_1_10 <= 1
 0 <= assign_mix_9_2_1 <= 1
 0 <= assign_mix_9_2_2 <= 1
 0 <= assign_mix_9_2_3 <= 1
 0 <= assign_mix_9_2_4 <= 1
 0 <= assign_mix_9_2_5 <= 1
 0 <= assign_mix_9_2_6 <= 1
 0 <= assign_mix_9_2_7 <= 1
 0 <= assign_mix_9_2_8 <= 1
 0 <= assign_mix_9_2_9 <= 1
 0 <= assign_mix_9_2_10 <= 1
 0 <= assign_mix_11_1_1 <= 1
 0 <= assign_mix_11_1_2 <= 1
 0 <= assign_mix_11_1_3 <= 1
 0 <= assign_mix_11_1_4 <= 1
 0 <= assign_mix_11_1_5 <= 1
 0 <= assign_mix_11_1_6 <= 1
 0 <= assign_mix_11_1_7 <= 1
 0 <= assign_mix_11_1_8 <= 1
 0 <= assign_mix_11_1_9 <= 1
 0 <= assign_mix_11_1_10 <= 1
 0 <= assign_mix_11_2_1 <= 1
 0 <= assign_mix_11_2_2 <= 1
 0 <= assign_mix_11_2_3 <= 1
 0 <= assign_mix_11_2_4 <= 1
 0 <= assign_mix_11_2_5 <= 1
 0 <= assign_mix_11_2_6 <= 1
 0 <= assign_mix_11_2_7 <= 1
 0 <= assign_mix_11_2_8 <= 1
 0 <= assign_mix_11_2_9 <= 1
 0 <= assign_mix_11_2_10 <= 1
 0 <= assign_mix_13_1_1 <= 1
 0 <= assign_mix_13_1_2 <= 1
 0 <= assign_mix_13_1_3 <= 1
 0 <= assign_mix_13_1_4 <= 1
 0 <= assign_mix_13_1_5 <= 1
 0 <= assign_mix_13_1_6 <= 1
 0 <= assign_mix_13_1_7 <= 1
 0 <= assign_mix_13_1_8 <= 1
 0 <= assign_mix_13_1_9 <= 1
 0 <= assign_mix_13_1_10 <= 1
 0 <= assign_mix_13_2_1 <= 1
 0 <= assign_mix_13_2_2 <= 1
 0 <= assign_mix_13_2_3 <= 1
 0 <= assign_mix_13_2_4 <= 1
 0 <= assign_mix_13_2_5 <= 1
 0 <= assign_mix_13_2_6 <= 1
 0 <= assign_mix_13_2_7 <= 1
 0 <= assign_mix_13_2_8 <= 1
 0 <= assign_mix_13_2_9 <= 1
 0 <= assign_mix_13_2_10 <= 1
 0 <= assign_mix_15_1_1 <= 1
 0 <= assign_mix_15_1_2 <= 1
 0 <= assign_mix_15_1_3 <= 1
 0 <= assign_mix_15_1_4 <= 1
 0 <= assign_mix_15_1_5 <= 1
 0 <= assign_mix_15_1_6 <= 1
 0 <= assign_mix_15_1_7 <= 1
 0 <= assign_mix_15_1_8 <= 1
 0 <= assign_mix_15_1_9 <= 1
 0 <= assign_mix_15_1_10 <= 1
 0 <= assign_mix_15_2_1 <= 1
 0 <= assign_mix_15_2_2 <= 1
 0 <= assign_mix_15_2_3 <= 1
 0 <= assign_mix_15_2_4 <= 1
 0 <= assign_mix_15_2_5 <= 1
 0 <= assign_mix_15_2_6 <= 1
 0 <= assign_mix_15_2_7 <= 1
 0 <= assign_mix_15_2_8 <= 1
 0 <= assign_mix_15_2_9 <= 1
 0 <= assign_mix_15_2_10 <= 1
 0 <= assign_mix_17_1_1 <= 1
 0 <= assign_mix_17_1_2 <= 1
 0 <= assign_mix_17_1_3 <= 1
 0 <= assign_mix_17_1_4 <= 1
 0 <= assign_mix_17_1_5 <= 1
 0 <= assign_mix_17_1_6 <= 1
 0 <= assign_mix_17_1_7 <= 1
 0 <= assign_mix_17_1_8 <= 1
 0 <= assign_mix_17_1_9 <= 1
 0 <= assign_mix_17_1_10 <= 1
 0 <= assign_mix_17_2_1 <= 1
 0 <= assign_mix_17_2_2 <= 1
 0 <= assign_mix_17_2_3 <= 1
 0 <= assign_mix_17_2_4 <= 1
 0 <= assign_mix_17_2_5 <= 1
 0 <= assign_mix_17_2_6 <= 1
 0 <= assign_mix_17_2_7 <= 1
 0 <= assign_mix_17_2_8 <= 1
 0 <= assign_mix_17_2_9 <= 1
 0 <= assign_mix_17_2_10 <= 1
 0 <= assign_mix_19_1_1 <= 1
 0 <= assign_mix_19_1_2 <= 1
 0 <= assign_mix_19_1_3 <= 1
 0 <= assign_mix_19_1_4 <= 1
 0 <= assign_mix_19_1_5 <= 1
 0 <= assign_mix_19_1_6 <= 1
 0 <= assign_mix_19_1_7 <= 1
 0 <= assign_mix_19_1_8 <= 1
 0 <= assign_mix_19_1_9 <= 1
 0 <= assign_mix_19_1_10 <= 1
 0 <= assign_mix_19_2_1 <= 1
 0 <= assign_mix_19_2_2 <= 1
 0 <= assign_mix_19_2_3 <= 1
 0 <= assign_mix_19_2_4 <= 1
 0 <= assign_mix_19_2_5 <= 1
 0 <= assign_mix_19_2_6 <= 1
 0 <= assign_mix_19_2_7 <= 1
 0 <= assign_mix_19_2_8 <= 1
 0 <= assign_mix_19_2_9 <= 1
 0 <= assign_mix_19_2_10 <= 1
 0 <= mix_pos_used_1_1 <= 1
 0 <= mix_pos_used_1_2 <= 1
 0 <= mix_pos_used_1_3 <= 1
 0 <= mix_pos_used_1_4 <= 1
 0 <= mix_pos_used_1_5 <= 1
 0 <= mix_pos_used_1_6 <= 1
 0 <= mix_pos_used_1_7 <= 1
 0 <= mix_pos_used_1_8 <= 1
 0 <= mix_pos_used_1_9 <= 1
 0 <= mix_pos_used_1_10 <= 1
 0 <= mix_pos_used_2_1 <= 1
 0 <= mix_pos_used_2_2 <= 1
 0 <= mix_pos_used_2_3 <= 1
 0 <= mix_pos_used_2_4 <= 1
 0 <= mix_pos_used_2_5 <= 1
 0 <= mix_pos_used_2_6 <= 1
 0 <= mix_pos_used_2_7 <= 1
 0 <= mix_pos_used_2_8 <= 1
 0 <= mix_pos_used_2_9 <= 1
 0 <= mix_pos_used_2_10 <= 1
 0 <= mix_cycle_used_1_1 <= 1
 0 <= mix_cycle_used_1_2 <= 1
 0 <= mix_cycle_used_1_3 <= 1
 0 <= mix_cycle_used_1_4 <= 1
 0 <= mix_cycle_used_1_5 <= 1
 0 <= mix_cycle_used_1_6 <= 1
 0 <= mix_cycle_used_1_7 <= 1
 0 <= mix_cycle_used_1_8 <= 1
 0 <= mix_cycle_used_1_9 <= 1
 0 <= mix_cycle_used_1_10 <= 1
 0 <= mix_cycle_used_1_11 <= 1
 0 <= mix_cycle_used_2_1 <= 1
 0 <= mix_cycle_used_2_2 <= 1
 0 <= mix_cycle_used_2_3 <= 1
 0 <= mix_cycle_used_2_4 <= 1
 0 <= mix_cycle_used_2_5 <= 1
 0 <= mix_cycle_used_2_6 <= 1
 0 <= mix_cycle_used_2_7 <= 1
 0 <= mix_cycle_used_2_8 <= 1
 0 <= mix_cycle_used_2_9 <= 1
 0 <= mix_cycle_used_2_10 <= 1
 0 <= mix_cycle_used_2_11 <= 1
 0 <= mix_active_1 <= 1
 0 <= mix_active_2 <= 1
 0 <= mix_last_cycle_1_1 <= 1
 0 <= mix_last_cycle_1_2 <= 1
 0 <= mix_last_cycle_1_3 <= 1
 0 <= mix_last_cycle_1_4 <= 1
 0 <= mix_last_cycle_1_5 <= 1
 0 <= mix_last_cycle_1_6 <= 1
 0 <= mix_last_cycle_1_7 <= 1
 0 <= mix_last_cycle_1_8 <= 1
 0 <= mix_last_cycle_1_9 <= 1
 0 <= mix_last_cycle_1_10 <= 1
 0 <= mix_last_cycle_1_11 <= 1
 0 <= mix_last_cycle_2_1 <= 1
 0 <= mix_last_cycle_2_2 <= 1
 0 <= mix_last_cycle_2_3 <= 1
 0 <= mix_last_cycle_2_4 <= 1
 0 <= mix_last_cycle_2_5 <= 1
 0 <= mix_last_cycle_2_6 <= 1
 0 <= mix_last_cycle_2_7 <= 1
 0 <= mix_last_cycle_2_8 <= 1
 0 <= mix_last_cycle_2_9 <= 1
 0 <= mix_last_cycle_2_10 <= 1
 0 <= mix_last_cycle_2_11 <= 1
Binaries
 assign_full_2_1_1 assign_full_2_1_2 assign_full_2_1_3 assign_full_2_1_4 assign_full_2_1_5 assign_full_2_1_6
 assign_full_2_1_7 assign_full_2_1_8 assign_full_2_1_9 assign_full_2_1_10 assign_full_2_2_1 assign_full_2_2_2
 assign_full_2_2_3 assign_full_2_2_4 assign_full_2_2_5 assign_full_2_2_6 assign_full_2_2_7 assign_full_2_2_8
 assign_full_2_2_9 assign_full_2_2_10 assign_full_4_1_1 assign_full_4_1_2 assign_full_4_1_3 assign_full_4_1_4
 assign_full_4_1_5 assign_full_4_1_6 assign_full_4_1_7 assign_full_4_1_8 assign_full_4_1_9 assign_full_4_1_10
 assign_full_4_2_1 assign_full_4_2_2 assign_full_4_2_3 assign_full_4_2_4 assign_full_4_2_5 assign_full_4_2_6
 assign_full_4_2_7 assign_full_4_2_8 assign_full_4_2_9 assign_full_4_2_10 assign_full_6_1_1 assign_full_6_1_2
 assign_full_6_1_3 assign_full_6_1_4 assign_full_6_1_5 assign_full_6_1_6 assign_full_6_1_7 assign_full_6_1_8
 assign_full_6_1_9 assign_full_6_1_10 assign_full_6_2_1 assign_full_6_2_2 assign_full_6_2_3 assign_full_6_2_4
 assign_full_6_2_5 assign_full_6_2_6 assign_full_6_2_7 assign_full_6_2_8 assign_full_6_2_9 assign_full_6_2_10
 assign_full_8_1_1 assign_full_8_1_2 assign_full_8_1_3 assign_full_8_1_4 assign_full_8_1_5 assign_full_8_1_6
 assign_full_8_1_7 assign_full_8_1_8 assign_full_8_1_9 assign_full_8_1_10 assign_full_8_2_1 assign_full_8_2_2
 assign_full_8_2_3 assign_full_8_2_4 assign_full_8_2_5 assign_full_8_2_6 assign_full_8_2_7 assign_full_8_2_8
 assign_full_8_2_9 assign_full_8_2_10 assign_full_10_1_1 assign_full_10_1_2 assign_full_10_1_3 assign_full_10_1_4
 assign_full_10_1_5 assign_full_10_1_6 assign_full_10_1_7 assign_full_10_1_8 assign_full_10_1_9 assign_full_10_1_10
 assign_full_10_2_1 assign_full_10_2_2 assign_full_10_2_3 assign_full_10_2_4 assign_full_10_2_5 assign_full_10_2_6
 assign_full_10_2_7 assign_full_10_2_8 assign_full_10_2_9 assign_full_10_2_10 assign_full_12_1_1 assign_full_12_1_2
 assign_full_12_1_3 assign_full_12_1_4 assign_full_12_1_5 assign_full_12_1_6 assign_full_12_1_7 assign_full_12_1_8
 assign_full_12_1_9 assign_full_12_1_10 assign_full_12_2_1 assign_full_12_2_2 assign_full_12_2_3 assign_full_12_2_4
 assign_full_12_2_5 assign_full_12_2_6 assign_full_12_2_7 assign_full_12_2_8 assign_full_12_2_9 assign_full_12_2_10
 assign_full_14_1_1 assign_full_14_1_2 assign_full_14_1_3 assign_full_14_1_4 assign_full_14_1_5 assign_full_14_1_6
 assign_full_14_1_7 assign_full_14_1_8 assign_full_14_1_9 assign_full_14_1_10 assign_full_14_2_1 assign_full_14_2_2
 assign_full_14_2_3 assign_full_14_2_4 assign_full_14_2_5 assign_full_14_2_6 assign_full_14_2_7 assign_full_14_2_8
 assign_full_14_2_9 assign_full_14_2_10 assign_full_16_1_1 assign_full_16_1_2 assign_full_16_1_3 assign_full_16_1_4
 assign_full_16_1_5 assign_full_16_1_6 assign_full_16_1_7 assign_full_16_1_8 assign_full_16_1_9 assign_full_16_1_10
 assign_full_16_2_1 assign_full_16_2_2 assign_full_16_2_3 assign_full_16_2_4 assign_full_16_2_5 assign_full_16_2_6
 assign_full_16_2_7 assign_full_16_2_8 assign_full_16_2_9 assign_full_16_2_10 assign_full_18_1_1 assign_full_18_1_2
 assign_full_18_1_3 assign_full_18_1_4 assign_full_18_1_5 assign_full_18_1_6 assign_full_18_1_7 assign_full_18_1_8
 assign_full_18_1_9 assign_full_18_1_10 assign_full_18_2_1 assign_full_18_2_2 assign_full_18_2_3 assign_full_18_2_4
 assign_full_18_2_5 assign_full_18_2_6 assign_full_18_2_7 assign_full_18_2_8 assign_full_18_2_9 assign_full_18_2_10
 assign_full_20_1_1 assign_full_20_1_2 assign_full_20_1_3 assign_full_20_1_4 assign_full_20_1_5 assign_full_20_1_6
 assign_full_20_1_7 assign_full_20_1_8 assign_full_20_1_9 assign_full_20_1_10 assign_full_20_2_1 assign_full_20_2_2
 assign_full_20_2_3 assign_full_20_2_4 assign_full_20_2_5 assign_full_20_2_6 assign_full_20_2_7 assign_full_20_2_8
 assign_full_20_2_9 assign_full_20_2_10 full_slot_used_1_1 full_slot_used_1_2 full_slot_used_1_3 full_slot_used_1_4
 full_slot_used_1_5 full_slot_used_1_6 full_slot_used_1_7 full_slot_used_1_8 full_slot_used_1_9 full_slot_used_1_10
 full_slot_used_2_1 full_slot_used_2_2 full_slot_used_2_3 full_slot_used_2_4 full_slot_used_2_5 full_slot_used_2_6
 full_slot_used_2_7 full_slot_used_2_8 full_slot_used_2_9 full_slot_used_2_10 full_pec_pairs_1_1 full_pec_pairs_1_2
 full_pec_pairs_1_3 full_pec_pairs_1_4 full_pec_pairs_1_5 full_pec_pairs_1_6 full_pec_pairs_1_7 full_pec_pairs_1_8
 full_pec_pairs_1_9 full_pec_pairs_1_10 full_pec_pairs_2_1 full_pec_pairs_2_2 full_pec_pairs_2_3 full_pec_pairs_2_4
 full_pec_pairs_2_5 full_pec_pairs_2_6 full_pec_pairs_2_7 full_pec_pairs_2_8 full_pec_pairs_2_9 full_pec_pairs_2_10
 full_after_mix_1_1 full_after_mix_1_2 full_after_mix_1_3 full_after_mix_1_4 full_after_mix_1_5 full_after_mix_1_6
 full_after_mix_1_7 full_after_mix_1_8 full_after_mix_1_9 full_after_mix_1_10 full_after_mix_2_1 full_after_mix_2_2
 full_after_mix_2_3 full_after_mix_2_4 full_after_mix_2_5 full_after_mix_2_6 full_after_mix_2_7 full_after_mix_2_8
 full_after_mix_2_9 full_after_mix_2_10 assign_mix_1_1_1 assign_mix_1_1_2 assign_mix_1_1_3 assign_mix_1_1_4
 assign_mix_1_1_5 assign_mix_1_1_6 assign_mix_1_1_7 assign_mix_1_1_8 assign_mix_1_1_9 assign_mix_1_1_10
 assign_mix_1_2_1 assign_mix_1_2_2 assign_mix_1_2_3 assign_mix_1_2_4 assign_mix_1_2_5 assign_mix_1_2_6
 assign_mix_1_2_7 assign_mix_1_2_8 assign_mix_1_2_9 assign_mix_1_2_10 assign_mix_3_1_1 assign_mix_3_1_2
 assign_mix_3_1_3 assign_mix_3_1_4 assign_mix_3_1_5 assign_mix_3_1_6 assign_mix_3_1_7 assign_mix_3_1_8
 assign_mix_3_1_9 assign_mix_3_1_10 assign_mix_3_2_1 assign_mix_3_2_2 assign_mix_3_2_3 assign_mix_3_2_4
 assign_mix_3_2_5 assign_mix_3_2_6 assign_mix_3_2_7 assign_mix_3_2_8 assign_mix_3_2_9 assign_mix_3_2_10
 assign_mix_5_1_1 assign_mix_5_1_2 assign_mix_5_1_3 assign_mix_5_1_4 assign_mix_5_1_5 assign_mix_5_1_6
 assign_mix_5_1_7 assign_mix_5_1_8 assign_mix_5_1_9 assign_mix_5_1_10 assign_mix_5_2_1 assign_mix_5_2_2
 assign_mix_5_2_3 assign_mix_5_2_4 assign_mix_5_2_5 assign_mix_5_2_6 assign_mix_5_2_7 assign_mix_5_2_8
 assign_mix_5_2_9 assign_mix_5_2_10 assign_mix_7_1_1 assign_mix_7_1_2 assign_mix_7_1_3 assign_mix_7_1_4
 assign_mix_7_1_5 assign_mix_7_1_6 assign_mix_7_1_7 assign_mix_7_1_8 assign_mix_7_1_9 assign_mix_7_1_10
 assign_mix_7_2_1 assign_mix_7_2_2 assign_mix_7_2_3 assign_mix_7_2_4 assign_mix_7_2_5 assign_mix_7_2_6
 assign_mix_7_2_7 assign_mix_7_2_8 assign_mix_7_2_9 assign_mix_7_2_10 assign_mix_9_1_1 assign_mix_9_1_2
 assign_mix_9_1_3 assign_mix_9_1_4 assign_mix_9_1_5 assign_mix_9_1_6 assign_mix_9_1_7 assign_mix_9_1_8
 assign_mix_9_1_9 assign_mix_9_1_10 assign_mix_9_2_1 assign_mix_9_2_2 assign_mix_9_2_3 assign_mix_9_2_4
 assign_mix_9_2_5 assign_mix_9_2_6 assign_mix_9_2_7 assign_mix_9_2_8 assign_mix_9_2_9 assign_mix_9_2_10
 assign_mix_11_1_1 assign_mix_11_1_2 assign_mix_11_1_3 assign_mix_11_1_4 assign_mix_11_1_5 assign_mix_11_1_6
 assign_mix_11_1_7 assign_mix_11_1_8 assign_mix_11_1_9 assign_mix_11_1_10 assign_mix_11_2_1 assign_mix_11_2_2
 assign_mix_11_2_3 assign_mix_11_2_4 assign_mix_11_2_5 assign_mix_11_2_6 assign_mix_11_2_7 assign_mix_11_2_8
 assign_mix_11_2_9 assign_mix_11_2_10 assign_mix_13_1_1 assign_mix_13_1_2 assign_mix_13_1_3 assign_mix_13_1_4
 assign_mix_13_1_5 assign_mix_13_1_6 assign_mix_13_1_7 assign_mix_13_1_8 assign_mix_13_1_9 assign_mix_13_1_10
 assign_mix_13_2_1 assign_mix_13_2_2 assign_mix_13_2_3 assign_mix_13_2_4 assign_mix_13_2_5 assign_mix_13_2_6
 assign_mix_13_2_7 assign_mix_13_2_8 assign_mix_13_2_9 assign_mix_13_2_10 assign_mix_15_1_1 assign_mix_15_1_2
 assign_mix_15_1_3 assign_mix_15_1_4 assign_mix_15_1_5 assign_mix_15_1_6 assign_mix_15_1_7 assign_mix_15_1_8
 assign_mix_15_1_9 assign_mix_15_1_10 assign_mix_15_2_1 assign_mix_15_2_2 assign_mix_15_2_3 assign_mix_15_2_4
 assign_mix_15_2_5 assign_mix_15_2_6 assign_mix_15_2_7 assign_mix_15_2_8 assign_mix_15_2_9 assign_mix_15_2_10
 assign_mix_17_1_1 assign_mix_17_1_2 assign_mix_17_1_3 assign_mix_17_1_4 assign_mix_17_1_5 assign_mix_17_1_6
 assign_mix_17_1_7 assign_mix_17_1_8 assign_mix_17_1_9 assign_mix_17_1_10 assign_mix_17_2_1 assign_mix_17_2_2
 assign_mix_17_2_3 assign_mix_17_2_4 assign_mix_17_2_5 assign_mix_17_2_6 assign_mix_17_2_7 assign_mix_17_2_8
 assign_mix_17_2_9 assign_mix_17_2_10 assign_mix_19_1_1 assign_mix_19_1_2 assign_mix_19_1_3 assign_mix_19_1_4
 assign_mix_19_1_5 assign_mix_19_1_6 assign_mix_19_1_7 assign_mix_19_1_8 assign_mix_19_1_9 assign_mix_19_1_10
 assign_mix_19_2_1 assign_mix_19_2_2 assign_mix_19_2_3 assign_mix_19_2_4 assign_mix_19_2_5 assign_mix_19_2_6
 assign_mix_19_2_7 assign_mix_19_2_8 assign_mix_19_2_9 assign_mix_19_2_10 mix_pos_used_1_1 mix_pos_used_1_2
 mix_pos_used_1_3 mix_pos_used_1_4 mix_pos_used_1_5 mix_pos_used_1_6 mix_pos_used_1_7 mix_pos_used_1_8
 mix_pos_used_1_9 mix_pos_used_1_10 mix_pos_used_2_1 mix_pos_used_2_2 mix_pos_used_2_3 mix_pos_used_2_4
 mix_pos_used_2_5 mix_pos_used_2_6 mix_pos_used_2_7 mix_pos_used_2_8 mix_pos_used_2_9 mix_pos_used_2_10
 mix_cycle_used_1_1 mix_cycle_used_1_2 mix_cycle_used_1_3 mix_cycle_used_1_4 mix_cycle_used_1_5 mix_cycle_used_1_6
 mix_cycle_used_1_7 mix_cycle_used_1_8 mix_cycle_used_1_9 mix_cycle_used_1_10 mix_cycle_used_1_11 mix_cycle_used_2_1
 mix_cycle_used_2_2 mix_cycle_used_2_3 mix_cycle_used_2_4 mix_cycle_used_2_5 mix_cycle_used_2_6 mix_cycle_used_2_7
 mix_cycle_used_2_8 mix_cycle_used_2_9 mix_cycle_used_2_10 mix_cycle_used_2_11 mix_active_1 mix_active_2
 mix_last_cycle_1_1 mix_last_cycle_1_2 mix_last_cycle_1_3 mix_last_cycle_1_4 mix_last_cycle_1_5 mix_last_cycle_1_6
 mix_last_cycle_1_7 mix_last_cycle_1_8 mix_last_cycle_1_9 mix_last_cycle_1_10 mix_last_cycle_1_11 mix_last_cycle_2_1
 mix_last_cycle_2_2 mix_last_cycle_2_3 mix_last_cycle_2_4 mix_last_cycle_2_5 mix_last_cycle_2_6 mix_last_cycle_2_7
 mix_last_cycle_2_8 mix_last_cycle_2_9 mix_last_cycle_2_10 mix_last_cycle_2_11
End
