\ SCIP STATISTICS
\   Problem name     : dual_source_rotary_cluster_shared_pm_pw_pairs
\   Variables        : 1028 (890 binary, 0 integer, 0 implicit integer, 138 continuous)
\   Constraints      : 2205
Minimize
 Obj: +1 c_max
Subject to
 full_wafer_assign_once_1: +1 wafer_to_full_pair_1_1 +1 wafer_to_full_pair_1_2 +1 wafer_to_full_pair_1_3
  +1 wafer_to_full_pair_1_4 +1 wafer_to_full_pair_1_5 +1 wafer_to_full_pair_1_6 +1 wafer_to_full_pair_1_7
  +1 wafer_to_full_pair_1_8 +1 wafer_to_full_pair_1_9 +1 wafer_to_full_pair_1_10 +1 wafer_to_full_pair_1_11
  +1 wafer_to_full_pair_1_12 = +1
 full_wafer_assign_once_2: +1 wafer_to_full_pair_2_1 +1 wafer_to_full_pair_2_2 +1 wafer_to_full_pair_2_3
  +1 wafer_to_full_pair_2_4 +1 wafer_to_full_pair_2_5 +1 wafer_to_full_pair_2_6 +1 wafer_to_full_pair_2_7
  +1 wafer_to_full_pair_2_8 +1 wafer_to_full_pair_2_9 +1 wafer_to_full_pair_2_10 +1 wafer_to_full_pair_2_11
  +1 wafer_to_full_pair_2_12 = +1
 full_wafer_assign_once_3: +1 wafer_to_full_pair_3_1 +1 wafer_to_full_pair_3_2 +1 wafer_to_full_pair_3_3
  +1 wafer_to_full_pair_3_4 +1 wafer_to_full_pair_3_5 +1 wafer_to_full_pair_3_6 +1 wafer_to_full_pair_3_7
  +1 wafer_to_full_pair_3_8 +1 wafer_to_full_pair_3_9 +1 wafer_to_full_pair_3_10 +1 wafer_to_full_pair_3_11
  +1 wafer_to_full_pair_3_12 = +1
 full_wafer_assign_once_4: +1 wafer_to_full_pair_4_1 +1 wafer_to_full_pair_4_2 +1 wafer_to_full_pair_4_3
  +1 wafer_to_full_pair_4_4 +1 wafer_to_full_pair_4_5 +1 wafer_to_full_pair_4_6 +1 wafer_to_full_pair_4_7
  +1 wafer_to_full_pair_4_8 +1 wafer_to_full_pair_4_9 +1 wafer_to_full_pair_4_10 +1 wafer_to_full_pair_4_11
  +1 wafer_to_full_pair_4_12 = +1
 full_wafer_assign_once_5: +1 wafer_to_full_pair_5_1 +1 wafer_to_full_pair_5_2 +1 wafer_to_full_pair_5_3
  +1 wafer_to_full_pair_5_4 +1 wafer_to_full_pair_5_5 +1 wafer_to_full_pair_5_6 +1 wafer_to_full_pair_5_7
  +1 wafer_to_full_pair_5_8 +1 wafer_to_full_pair_5_9 +1 wafer_to_full_pair_5_10 +1 wafer_to_full_pair_5_11
  +1 wafer_to_full_pair_5_12 = +1
 full_wafer_assign_once_6: +1 wafer_to_full_pair_6_1 +1 wafer_to_full_pair_6_2 +1 wafer_to_full_pair_6_3
  +1 wafer_to_full_pair_6_4 +1 wafer_to_full_pair_6_5 +1 wafer_to_full_pair_6_6 +1 wafer_to_full_pair_6_7
  +1 wafer_to_full_pair_6_8 +1 wafer_to_full_pair_6_9 +1 wafer_to_full_pair_6_10 +1 wafer_to_full_pair_6_11
  +1 wafer_to_full_pair_6_12 = +1
 full_wafer_assign_once_7: +1 wafer_to_full_pair_7_1 +1 wafer_to_full_pair_7_2 +1 wafer_to_full_pair_7_3
  +1 wafer_to_full_pair_7_4 +1 wafer_to_full_pair_7_5 +1 wafer_to_full_pair_7_6 +1 wafer_to_full_pair_7_7
  +1 wafer_to_full_pair_7_8 +1 wafer_to_full_pair_7_9 +1 wafer_to_full_pair_7_10 +1 wafer_to_full_pair_7_11
  +1 wafer_to_full_pair_7_12 = +1
 full_wafer_assign_once_8: +1 wafer_to_full_pair_8_1 +1 wafer_to_full_pair_8_2 +1 wafer_to_full_pair_8_3
  +1 wafer_to_full_pair_8_4 +1 wafer_to_full_pair_8_5 +1 wafer_to_full_pair_8_6 +1 wafer_to_full_pair_8_7
  +1 wafer_to_full_pair_8_8 +1 wafer_to_full_pair_8_9 +1 wafer_to_full_pair_8_10 +1 wafer_to_full_pair_8_11
  +1 wafer_to_full_pair_8_12 = +1
 full_wafer_assign_once_9: +1 wafer_to_full_pair_9_1 +1 wafer_to_full_pair_9_2 +1 wafer_to_full_pair_9_3
  +1 wafer_to_full_pair_9_4 +1 wafer_to_full_pair_9_5 +1 wafer_to_full_pair_9_6 +1 wafer_to_full_pair_9_7
  +1 wafer_to_full_pair_9_8 +1 wafer_to_full_pair_9_9 +1 wafer_to_full_pair_9_10 +1 wafer_to_full_pair_9_11
  +1 wafer_to_full_pair_9_12 = +1
 full_wafer_assign_once_10: +1 wafer_to_full_pair_10_1 +1 wafer_to_full_pair_10_2 +1 wafer_to_full_pair_10_3
  +1 wafer_to_full_pair_10_4 +1 wafer_to_full_pair_10_5 +1 wafer_to_full_pair_10_6 +1 wafer_to_full_pair_10_7
  +1 wafer_to_full_pair_10_8 +1 wafer_to_full_pair_10_9 +1 wafer_to_full_pair_10_10 +1 wafer_to_full_pair_10_11
  +1 wafer_to_full_pair_10_12 = +1
 full_wafer_assign_once_11: +1 wafer_to_full_pair_11_1 +1 wafer_to_full_pair_11_2 +1 wafer_to_full_pair_11_3
  +1 wafer_to_full_pair_11_4 +1 wafer_to_full_pair_11_5 +1 wafer_to_full_pair_11_6 +1 wafer_to_full_pair_11_7
  +1 wafer_to_full_pair_11_8 +1 wafer_to_full_pair_11_9 +1 wafer_to_full_pair_11_10 +1 wafer_to_full_pair_11_11
  +1 wafer_to_full_pair_11_12 = +1
 full_wafer_assign_once_12: +1 wafer_to_full_pair_12_1 +1 wafer_to_full_pair_12_2 +1 wafer_to_full_pair_12_3
  +1 wafer_to_full_pair_12_4 +1 wafer_to_full_pair_12_5 +1 wafer_to_full_pair_12_6 +1 wafer_to_full_pair_12_7
  +1 wafer_to_full_pair_12_8 +1 wafer_to_full_pair_12_9 +1 wafer_to_full_pair_12_10 +1 wafer_to_full_pair_12_11
  +1 wafer_to_full_pair_12_12 = +1
 full_wafer_assign_once_13: +1 wafer_to_full_pair_13_1 +1 wafer_to_full_pair_13_2 +1 wafer_to_full_pair_13_3
  +1 wafer_to_full_pair_13_4 +1 wafer_to_full_pair_13_5 +1 wafer_to_full_pair_13_6 +1 wafer_to_full_pair_13_7
  +1 wafer_to_full_pair_13_8 +1 wafer_to_full_pair_13_9 +1 wafer_to_full_pair_13_10 +1 wafer_to_full_pair_13_11
  +1 wafer_to_full_pair_13_12 = +1
 full_wafer_assign_once_14: +1 wafer_to_full_pair_14_1 +1 wafer_to_full_pair_14_2 +1 wafer_to_full_pair_14_3
  +1 wafer_to_full_pair_14_4 +1 wafer_to_full_pair_14_5 +1 wafer_to_full_pair_14_6 +1 wafer_to_full_pair_14_7
  +1 wafer_to_full_pair_14_8 +1 wafer_to_full_pair_14_9 +1 wafer_to_full_pair_14_10 +1 wafer_to_full_pair_14_11
  +1 wafer_to_full_pair_14_12 = +1
 full_wafer_assign_once_15: +1 wafer_to_full_pair_15_1 +1 wafer_to_full_pair_15_2 +1 wafer_to_full_pair_15_3
  +1 wafer_to_full_pair_15_4 +1 wafer_to_full_pair_15_5 +1 wafer_to_full_pair_15_6 +1 wafer_to_full_pair_15_7
  +1 wafer_to_full_pair_15_8 +1 wafer_to_full_pair_15_9 +1 wafer_to_full_pair_15_10 +1 wafer_to_full_pair_15_11
  +1 wafer_to_full_pair_15_12 = +1
 full_wafer_assign_once_16: +1 wafer_to_full_pair_16_1 +1 wafer_to_full_pair_16_2 +1 wafer_to_full_pair_16_3
  +1 wafer_to_full_pair_16_4 +1 wafer_to_full_pair_16_5 +1 wafer_to_full_pair_16_6 +1 wafer_to_full_pair_16_7
  +1 wafer_to_full_pair_16_8 +1 wafer_to_full_pair_16_9 +1 wafer_to_full_pair_16_10 +1 wafer_to_full_pair_16_11
  +1 wafer_to_full_pair_16_12 = +1
 full_wafer_assign_once_17: +1 wafer_to_full_pair_17_1 +1 wafer_to_full_pair_17_2 +1 wafer_to_full_pair_17_3
  +1 wafer_to_full_pair_17_4 +1 wafer_to_full_pair_17_5 +1 wafer_to_full_pair_17_6 +1 wafer_to_full_pair_17_7
  +1 wafer_to_full_pair_17_8 +1 wafer_to_full_pair_17_9 +1 wafer_to_full_pair_17_10 +1 wafer_to_full_pair_17_11
  +1 wafer_to_full_pair_17_12 = +1
 full_wafer_assign_once_18: +1 wafer_to_full_pair_18_1 +1 wafer_to_full_pair_18_2 +1 wafer_to_full_pair_18_3
  +1 wafer_to_full_pair_18_4 +1 wafer_to_full_pair_18_5 +1 wafer_to_full_pair_18_6 +1 wafer_to_full_pair_18_7
  +1 wafer_to_full_pair_18_8 +1 wafer_to_full_pair_18_9 +1 wafer_to_full_pair_18_10 +1 wafer_to_full_pair_18_11
  +1 wafer_to_full_pair_18_12 = +1
 full_wafer_assign_once_19: +1 wafer_to_full_pair_19_1 +1 wafer_to_full_pair_19_2 +1 wafer_to_full_pair_19_3
  +1 wafer_to_full_pair_19_4 +1 wafer_to_full_pair_19_5 +1 wafer_to_full_pair_19_6 +1 wafer_to_full_pair_19_7
  +1 wafer_to_full_pair_19_8 +1 wafer_to_full_pair_19_9 +1 wafer_to_full_pair_19_10 +1 wafer_to_full_pair_19_11
  +1 wafer_to_full_pair_19_12 = +1
 full_wafer_assign_once_20: +1 wafer_to_full_pair_20_1 +1 wafer_to_full_pair_20_2 +1 wafer_to_full_pair_20_3
  +1 wafer_to_full_pair_20_4 +1 wafer_to_full_pair_20_5 +1 wafer_to_full_pair_20_6 +1 wafer_to_full_pair_20_7
  +1 wafer_to_full_pair_20_8 +1 wafer_to_full_pair_20_9 +1 wafer_to_full_pair_20_10 +1 wafer_to_full_pair_20_11
  +1 wafer_to_full_pair_20_12 = +1
 full_wafer_assign_once_21: +1 wafer_to_full_pair_21_1 +1 wafer_to_full_pair_21_2 +1 wafer_to_full_pair_21_3
  +1 wafer_to_full_pair_21_4 +1 wafer_to_full_pair_21_5 +1 wafer_to_full_pair_21_6 +1 wafer_to_full_pair_21_7
  +1 wafer_to_full_pair_21_8 +1 wafer_to_full_pair_21_9 +1 wafer_to_full_pair_21_10 +1 wafer_to_full_pair_21_11
  +1 wafer_to_full_pair_21_12 = +1
 full_wafer_assign_once_22: +1 wafer_to_full_pair_22_1 +1 wafer_to_full_pair_22_2 +1 wafer_to_full_pair_22_3
  +1 wafer_to_full_pair_22_4 +1 wafer_to_full_pair_22_5 +1 wafer_to_full_pair_22_6 +1 wafer_to_full_pair_22_7
  +1 wafer_to_full_pair_22_8 +1 wafer_to_full_pair_22_9 +1 wafer_to_full_pair_22_10 +1 wafer_to_full_pair_22_11
  +1 wafer_to_full_pair_22_12 = +1
 full_wafer_assign_once_23: +1 wafer_to_full_pair_23_1 +1 wafer_to_full_pair_23_2 +1 wafer_to_full_pair_23_3
  +1 wafer_to_full_pair_23_4 +1 wafer_to_full_pair_23_5 +1 wafer_to_full_pair_23_6 +1 wafer_to_full_pair_23_7
  +1 wafer_to_full_pair_23_8 +1 wafer_to_full_pair_23_9 +1 wafer_to_full_pair_23_10 +1 wafer_to_full_pair_23_11
  +1 wafer_to_full_pair_23_12 = +1
 full_wafer_assign_once_24: +1 wafer_to_full_pair_24_1 +1 wafer_to_full_pair_24_2 +1 wafer_to_full_pair_24_3
  +1 wafer_to_full_pair_24_4 +1 wafer_to_full_pair_24_5 +1 wafer_to_full_pair_24_6 +1 wafer_to_full_pair_24_7
  +1 wafer_to_full_pair_24_8 +1 wafer_to_full_pair_24_9 +1 wafer_to_full_pair_24_10 +1 wafer_to_full_pair_24_11
  +1 wafer_to_full_pair_24_12 = +1
 full_pair_capacity_1: +1 wafer_to_full_pair_1_1 +1 wafer_to_full_pair_2_1 +1 wafer_to_full_pair_3_1 +1 wafer_to_full_pair_4_1
  +1 wafer_to_full_pair_5_1 +1 wafer_to_full_pair_6_1 +1 wafer_to_full_pair_7_1 +1 wafer_to_full_pair_8_1
  +1 wafer_to_full_pair_9_1 +1 wafer_to_full_pair_10_1 +1 wafer_to_full_pair_11_1 +1 wafer_to_full_pair_12_1
  +1 wafer_to_full_pair_13_1 +1 wafer_to_full_pair_14_1 +1 wafer_to_full_pair_15_1 +1 wafer_to_full_pair_16_1
  +1 wafer_to_full_pair_17_1 +1 wafer_to_full_pair_18_1 +1 wafer_to_full_pair_19_1 +1 wafer_to_full_pair_20_1
  +1 wafer_to_full_pair_21_1 +1 wafer_to_full_pair_22_1 +1 wafer_to_full_pair_23_1 +1 wafer_to_full_pair_24_1
  = +2
 full_pair_capacity_2: +1 wafer_to_full_pair_1_2 +1 wafer_to_full_pair_2_2 +1 wafer_to_full_pair_3_2 +1 wafer_to_full_pair_4_2
  +1 wafer_to_full_pair_5_2 +1 wafer_to_full_pair_6_2 +1 wafer_to_full_pair_7_2 +1 wafer_to_full_pair_8_2
  +1 wafer_to_full_pair_9_2 +1 wafer_to_full_pair_10_2 +1 wafer_to_full_pair_11_2 +1 wafer_to_full_pair_12_2
  +1 wafer_to_full_pair_13_2 +1 wafer_to_full_pair_14_2 +1 wafer_to_full_pair_15_2 +1 wafer_to_full_pair_16_2
  +1 wafer_to_full_pair_17_2 +1 wafer_to_full_pair_18_2 +1 wafer_to_full_pair_19_2 +1 wafer_to_full_pair_20_2
  +1 wafer_to_full_pair_21_2 +1 wafer_to_full_pair_22_2 +1 wafer_to_full_pair_23_2 +1 wafer_to_full_pair_24_2
  = +2
 full_pair_capacity_3: +1 wafer_to_full_pair_1_3 +1 wafer_to_full_pair_2_3 +1 wafer_to_full_pair_3_3 +1 wafer_to_full_pair_4_3
  +1 wafer_to_full_pair_5_3 +1 wafer_to_full_pair_6_3 +1 wafer_to_full_pair_7_3 +1 wafer_to_full_pair_8_3
  +1 wafer_to_full_pair_9_3 +1 wafer_to_full_pair_10_3 +1 wafer_to_full_pair_11_3 +1 wafer_to_full_pair_12_3
  +1 wafer_to_full_pair_13_3 +1 wafer_to_full_pair_14_3 +1 wafer_to_full_pair_15_3 +1 wafer_to_full_pair_16_3
  +1 wafer_to_full_pair_17_3 +1 wafer_to_full_pair_18_3 +1 wafer_to_full_pair_19_3 +1 wafer_to_full_pair_20_3
  +1 wafer_to_full_pair_21_3 +1 wafer_to_full_pair_22_3 +1 wafer_to_full_pair_23_3 +1 wafer_to_full_pair_24_3
  = +2
 full_pair_capacity_4: +1 wafer_to_full_pair_1_4 +1 wafer_to_full_pair_2_4 +1 wafer_to_full_pair_3_4 +1 wafer_to_full_pair_4_4
  +1 wafer_to_full_pair_5_4 +1 wafer_to_full_pair_6_4 +1 wafer_to_full_pair_7_4 +1 wafer_to_full_pair_8_4
  +1 wafer_to_full_pair_9_4 +1 wafer_to_full_pair_10_4 +1 wafer_to_full_pair_11_4 +1 wafer_to_full_pair_12_4
  +1 wafer_to_full_pair_13_4 +1 wafer_to_full_pair_14_4 +1 wafer_to_full_pair_15_4 +1 wafer_to_full_pair_16_4
  +1 wafer_to_full_pair_17_4 +1 wafer_to_full_pair_18_4 +1 wafer_to_full_pair_19_4 +1 wafer_to_full_pair_20_4
  +1 wafer_to_full_pair_21_4 +1 wafer_to_full_pair_22_4 +1 wafer_to_full_pair_23_4 +1 wafer_to_full_pair_24_4
  = +2
 full_pair_capacity_5: +1 wafer_to_full_pair_1_5 +1 wafer_to_full_pair_2_5 +1 wafer_to_full_pair_3_5 +1 wafer_to_full_pair_4_5
  +1 wafer_to_full_pair_5_5 +1 wafer_to_full_pair_6_5 +1 wafer_to_full_pair_7_5 +1 wafer_to_full_pair_8_5
  +1 wafer_to_full_pair_9_5 +1 wafer_to_full_pair_10_5 +1 wafer_to_full_pair_11_5 +1 wafer_to_full_pair_12_5
  +1 wafer_to_full_pair_13_5 +1 wafer_to_full_pair_14_5 +1 wafer_to_full_pair_15_5 +1 wafer_to_full_pair_16_5
  +1 wafer_to_full_pair_17_5 +1 wafer_to_full_pair_18_5 +1 wafer_to_full_pair_19_5 +1 wafer_to_full_pair_20_5
  +1 wafer_to_full_pair_21_5 +1 wafer_to_full_pair_22_5 +1 wafer_to_full_pair_23_5 +1 wafer_to_full_pair_24_5
  = +2
 full_pair_capacity_6: +1 wafer_to_full_pair_1_6 +1 wafer_to_full_pair_2_6 +1 wafer_to_full_pair_3_6 +1 wafer_to_full_pair_4_6
  +1 wafer_to_full_pair_5_6 +1 wafer_to_full_pair_6_6 +1 wafer_to_full_pair_7_6 +1 wafer_to_full_pair_8_6
  +1 wafer_to_full_pair_9_6 +1 wafer_to_full_pair_10_6 +1 wafer_to_full_pair_11_6 +1 wafer_to_full_pair_12_6
  +1 wafer_to_full_pair_13_6 +1 wafer_to_full_pair_14_6 +1 wafer_to_full_pair_15_6 +1 wafer_to_full_pair_16_6
  +1 wafer_to_full_pair_17_6 +1 wafer_to_full_pair_18_6 +1 wafer_to_full_pair_19_6 +1 wafer_to_full_pair_20_6
  +1 wafer_to_full_pair_21_6 +1 wafer_to_full_pair_22_6 +1 wafer_to_full_pair_23_6 +1 wafer_to_full_pair_24_6
  = +2
 full_pair_capacity_7: +1 wafer_to_full_pair_1_7 +1 wafer_to_full_pair_2_7 +1 wafer_to_full_pair_3_7 +1 wafer_to_full_pair_4_7
  +1 wafer_to_full_pair_5_7 +1 wafer_to_full_pair_6_7 +1 wafer_to_full_pair_7_7 +1 wafer_to_full_pair_8_7
  +1 wafer_to_full_pair_9_7 +1 wafer_to_full_pair_10_7 +1 wafer_to_full_pair_11_7 +1 wafer_to_full_pair_12_7
  +1 wafer_to_full_pair_13_7 +1 wafer_to_full_pair_14_7 +1 wafer_to_full_pair_15_7 +1 wafer_to_full_pair_16_7
  +1 wafer_to_full_pair_17_7 +1 wafer_to_full_pair_18_7 +1 wafer_to_full_pair_19_7 +1 wafer_to_full_pair_20_7
  +1 wafer_to_full_pair_21_7 +1 wafer_to_full_pair_22_7 +1 wafer_to_full_pair_23_7 +1 wafer_to_full_pair_24_7
  = +2
 full_pair_capacity_8: +1 wafer_to_full_pair_1_8 +1 wafer_to_full_pair_2_8 +1 wafer_to_full_pair_3_8 +1 wafer_to_full_pair_4_8
  +1 wafer_to_full_pair_5_8 +1 wafer_to_full_pair_6_8 +1 wafer_to_full_pair_7_8 +1 wafer_to_full_pair_8_8
  +1 wafer_to_full_pair_9_8 +1 wafer_to_full_pair_10_8 +1 wafer_to_full_pair_11_8 +1 wafer_to_full_pair_12_8
  +1 wafer_to_full_pair_13_8 +1 wafer_to_full_pair_14_8 +1 wafer_to_full_pair_15_8 +1 wafer_to_full_pair_16_8
  +1 wafer_to_full_pair_17_8 +1 wafer_to_full_pair_18_8 +1 wafer_to_full_pair_19_8 +1 wafer_to_full_pair_20_8
  +1 wafer_to_full_pair_21_8 +1 wafer_to_full_pair_22_8 +1 wafer_to_full_pair_23_8 +1 wafer_to_full_pair_24_8
  = +2
 full_pair_capacity_9: +1 wafer_to_full_pair_1_9 +1 wafer_to_full_pair_2_9 +1 wafer_to_full_pair_3_9 +1 wafer_to_full_pair_4_9
  +1 wafer_to_full_pair_5_9 +1 wafer_to_full_pair_6_9 +1 wafer_to_full_pair_7_9 +1 wafer_to_full_pair_8_9
  +1 wafer_to_full_pair_9_9 +1 wafer_to_full_pair_10_9 +1 wafer_to_full_pair_11_9 +1 wafer_to_full_pair_12_9
  +1 wafer_to_full_pair_13_9 +1 wafer_to_full_pair_14_9 +1 wafer_to_full_pair_15_9 +1 wafer_to_full_pair_16_9
  +1 wafer_to_full_pair_17_9 +1 wafer_to_full_pair_18_9 +1 wafer_to_full_pair_19_9 +1 wafer_to_full_pair_20_9
  +1 wafer_to_full_pair_21_9 +1 wafer_to_full_pair_22_9 +1 wafer_to_full_pair_23_9 +1 wafer_to_full_pair_24_9
  = +2
 full_pair_capacity_10: +1 wafer_to_full_pair_1_10 +1 wafer_to_full_pair_2_10 +1 wafer_to_full_pair_3_10
  +1 wafer_to_full_pair_4_10 +1 wafer_to_full_pair_5_10 +1 wafer_to_full_pair_6_10 +1 wafer_to_full_pair_7_10
  +1 wafer_to_full_pair_8_10 +1 wafer_to_full_pair_9_10 +1 wafer_to_full_pair_10_10 +1 wafer_to_full_pair_11_10
  +1 wafer_to_full_pair_12_10 +1 wafer_to_full_pair_13_10 +1 wafer_to_full_pair_14_10 +1 wafer_to_full_pair_15_10
  +1 wafer_to_full_pair_16_10 +1 wafer_to_full_pair_17_10 +1 wafer_to_full_pair_18_10 +1 wafer_to_full_pair_19_10
  +1 wafer_to_full_pair_20_10 +1 wafer_to_full_pair_21_10 +1 wafer_to_full_pair_22_10 +1 wafer_to_full_pair_23_10
  +1 wafer_to_full_pair_24_10 = +2
 full_pair_capacity_11: +1 wafer_to_full_pair_1_11 +1 wafer_to_full_pair_2_11 +1 wafer_to_full_pair_3_11
  +1 wafer_to_full_pair_4_11 +1 wafer_to_full_pair_5_11 +1 wafer_to_full_pair_6_11 +1 wafer_to_full_pair_7_11
  +1 wafer_to_full_pair_8_11 +1 wafer_to_full_pair_9_11 +1 wafer_to_full_pair_10_11 +1 wafer_to_full_pair_11_11
  +1 wafer_to_full_pair_12_11 +1 wafer_to_full_pair_13_11 +1 wafer_to_full_pair_14_11 +1 wafer_to_full_pair_15_11
  +1 wafer_to_full_pair_16_11 +1 wafer_to_full_pair_17_11 +1 wafer_to_full_pair_18_11 +1 wafer_to_full_pair_19_11
  +1 wafer_to_full_pair_20_11 +1 wafer_to_full_pair_21_11 +1 wafer_to_full_pair_22_11 +1 wafer_to_full_pair_23_11
  +1 wafer_to_full_pair_24_11 = +2
 full_pair_capacity_12: +1 wafer_to_full_pair_1_12 +1 wafer_to_full_pair_2_12 +1 wafer_to_full_pair_3_12
  +1 wafer_to_full_pair_4_12 +1 wafer_to_full_pair_5_12 +1 wafer_to_full_pair_6_12 +1 wafer_to_full_pair_7_12
  +1 wafer_to_full_pair_8_12 +1 wafer_to_full_pair_9_12 +1 wafer_to_full_pair_10_12 +1 wafer_to_full_pair_11_12
  +1 wafer_to_full_pair_12_12 +1 wafer_to_full_pair_13_12 +1 wafer_to_full_pair_14_12 +1 wafer_to_full_pair_15_12
  +1 wafer_to_full_pair_16_12 +1 wafer_to_full_pair_17_12 +1 wafer_to_full_pair_18_12 +1 wafer_to_full_pair_19_12
  +1 wafer_to_full_pair_20_12 +1 wafer_to_full_pair_21_12 +1 wafer_to_full_pair_22_12 +1 wafer_to_full_pair_23_12
  +1 wafer_to_full_pair_24_12 = +2
 full_pairing_order_1_2: +1 wafer_to_full_pair_1_1 +2 wafer_to_full_pair_1_2 +3 wafer_to_full_pair_1_3
  +4 wafer_to_full_pair_1_4 +5 wafer_to_full_pair_1_5 +6 wafer_to_full_pair_1_6 +7 wafer_to_full_pair_1_7
  +8 wafer_to_full_pair_1_8 +9 wafer_to_full_pair_1_9 +10 wafer_to_full_pair_1_10 +11 wafer_to_full_pair_1_11
  +12 wafer_to_full_pair_1_12 -1 wafer_to_full_pair_2_1 -2 wafer_to_full_pair_2_2 -3 wafer_to_full_pair_2_3
  -4 wafer_to_full_pair_2_4 -5 wafer_to_full_pair_2_5 -6 wafer_to_full_pair_2_6 -7 wafer_to_full_pair_2_7
  -8 wafer_to_full_pair_2_8 -9 wafer_to_full_pair_2_9 -10 wafer_to_full_pair_2_10 -11 wafer_to_full_pair_2_11
  -12 wafer_to_full_pair_2_12 <= +0
 full_pairing_order_2_3: +1 wafer_to_full_pair_2_1 +2 wafer_to_full_pair_2_2 +3 wafer_to_full_pair_2_3
  +4 wafer_to_full_pair_2_4 +5 wafer_to_full_pair_2_5 +6 wafer_to_full_pair_2_6 +7 wafer_to_full_pair_2_7
  +8 wafer_to_full_pair_2_8 +9 wafer_to_full_pair_2_9 +10 wafer_to_full_pair_2_10 +11 wafer_to_full_pair_2_11
  +12 wafer_to_full_pair_2_12 -1 wafer_to_full_pair_3_1 -2 wafer_to_full_pair_3_2 -3 wafer_to_full_pair_3_3
  -4 wafer_to_full_pair_3_4 -5 wafer_to_full_pair_3_5 -6 wafer_to_full_pair_3_6 -7 wafer_to_full_pair_3_7
  -8 wafer_to_full_pair_3_8 -9 wafer_to_full_pair_3_9 -10 wafer_to_full_pair_3_10 -11 wafer_to_full_pair_3_11
  -12 wafer_to_full_pair_3_12 <= +0
 full_pairing_order_3_4: +1 wafer_to_full_pair_3_1 +2 wafer_to_full_pair_3_2 +3 wafer_to_full_pair_3_3
  +4 wafer_to_full_pair_3_4 +5 wafer_to_full_pair_3_5 +6 wafer_to_full_pair_3_6 +7 wafer_to_full_pair_3_7
  +8 wafer_to_full_pair_3_8 +9 wafer_to_full_pair_3_9 +10 wafer_to_full_pair_3_10 +11 wafer_to_full_pair_3_11
  +12 wafer_to_full_pair_3_12 -1 wafer_to_full_pair_4_1 -2 wafer_to_full_pair_4_2 -3 wafer_to_full_pair_4_3
  -4 wafer_to_full_pair_4_4 -5 wafer_to_full_pair_4_5 -6 wafer_to_full_pair_4_6 -7 wafer_to_full_pair_4_7
  -8 wafer_to_full_pair_4_8 -9 wafer_to_full_pair_4_9 -10 wafer_to_full_pair_4_10 -11 wafer_to_full_pair_4_11
  -12 wafer_to_full_pair_4_12 <= +0
 full_pairing_order_4_5: +1 wafer_to_full_pair_4_1 +2 wafer_to_full_pair_4_2 +3 wafer_to_full_pair_4_3
  +4 wafer_to_full_pair_4_4 +5 wafer_to_full_pair_4_5 +6 wafer_to_full_pair_4_6 +7 wafer_to_full_pair_4_7
  +8 wafer_to_full_pair_4_8 +9 wafer_to_full_pair_4_9 +10 wafer_to_full_pair_4_10 +11 wafer_to_full_pair_4_11
  +12 wafer_to_full_pair_4_12 -1 wafer_to_full_pair_5_1 -2 wafer_to_full_pair_5_2 -3 wafer_to_full_pair_5_3
  -4 wafer_to_full_pair_5_4 -5 wafer_to_full_pair_5_5 -6 wafer_to_full_pair_5_6 -7 wafer_to_full_pair_5_7
  -8 wafer_to_full_pair_5_8 -9 wafer_to_full_pair_5_9 -10 wafer_to_full_pair_5_10 -11 wafer_to_full_pair_5_11
  -12 wafer_to_full_pair_5_12 <= +0
 full_pairing_order_5_6: +1 wafer_to_full_pair_5_1 +2 wafer_to_full_pair_5_2 +3 wafer_to_full_pair_5_3
  +4 wafer_to_full_pair_5_4 +5 wafer_to_full_pair_5_5 +6 wafer_to_full_pair_5_6 +7 wafer_to_full_pair_5_7
  +8 wafer_to_full_pair_5_8 +9 wafer_to_full_pair_5_9 +10 wafer_to_full_pair_5_10 +11 wafer_to_full_pair_5_11
  +12 wafer_to_full_pair_5_12 -1 wafer_to_full_pair_6_1 -2 wafer_to_full_pair_6_2 -3 wafer_to_full_pair_6_3
  -4 wafer_to_full_pair_6_4 -5 wafer_to_full_pair_6_5 -6 wafer_to_full_pair_6_6 -7 wafer_to_full_pair_6_7
  -8 wafer_to_full_pair_6_8 -9 wafer_to_full_pair_6_9 -10 wafer_to_full_pair_6_10 -11 wafer_to_full_pair_6_11
  -12 wafer_to_full_pair_6_12 <= +0
 full_pairing_order_6_7: +1 wafer_to_full_pair_6_1 +2 wafer_to_full_pair_6_2 +3 wafer_to_full_pair_6_3
  +4 wafer_to_full_pair_6_4 +5 wafer_to_full_pair_6_5 +6 wafer_to_full_pair_6_6 +7 wafer_to_full_pair_6_7
  +8 wafer_to_full_pair_6_8 +9 wafer_to_full_pair_6_9 +10 wafer_to_full_pair_6_10 +11 wafer_to_full_pair_6_11
  +12 wafer_to_full_pair_6_12 -1 wafer_to_full_pair_7_1 -2 wafer_to_full_pair_7_2 -3 wafer_to_full_pair_7_3
  -4 wafer_to_full_pair_7_4 -5 wafer_to_full_pair_7_5 -6 wafer_to_full_pair_7_6 -7 wafer_to_full_pair_7_7
  -8 wafer_to_full_pair_7_8 -9 wafer_to_full_pair_7_9 -10 wafer_to_full_pair_7_10 -11 wafer_to_full_pair_7_11
  -12 wafer_to_full_pair_7_12 <= +0
 full_pairing_order_7_8: +1 wafer_to_full_pair_7_1 +2 wafer_to_full_pair_7_2 +3 wafer_to_full_pair_7_3
  +4 wafer_to_full_pair_7_4 +5 wafer_to_full_pair_7_5 +6 wafer_to_full_pair_7_6 +7 wafer_to_full_pair_7_7
  +8 wafer_to_full_pair_7_8 +9 wafer_to_full_pair_7_9 +10 wafer_to_full_pair_7_10 +11 wafer_to_full_pair_7_11
  +12 wafer_to_full_pair_7_12 -1 wafer_to_full_pair_8_1 -2 wafer_to_full_pair_8_2 -3 wafer_to_full_pair_8_3
  -4 wafer_to_full_pair_8_4 -5 wafer_to_full_pair_8_5 -6 wafer_to_full_pair_8_6 -7 wafer_to_full_pair_8_7
  -8 wafer_to_full_pair_8_8 -9 wafer_to_full_pair_8_9 -10 wafer_to_full_pair_8_10 -11 wafer_to_full_pair_8_11
  -12 wafer_to_full_pair_8_12 <= +0
 full_pairing_order_8_9: +1 wafer_to_full_pair_8_1 +2 wafer_to_full_pair_8_2 +3 wafer_to_full_pair_8_3
  +4 wafer_to_full_pair_8_4 +5 wafer_to_full_pair_8_5 +6 wafer_to_full_pair_8_6 +7 wafer_to_full_pair_8_7
  +8 wafer_to_full_pair_8_8 +9 wafer_to_full_pair_8_9 +10 wafer_to_full_pair_8_10 +11 wafer_to_full_pair_8_11
  +12 wafer_to_full_pair_8_12 -1 wafer_to_full_pair_9_1 -2 wafer_to_full_pair_9_2 -3 wafer_to_full_pair_9_3
  -4 wafer_to_full_pair_9_4 -5 wafer_to_full_pair_9_5 -6 wafer_to_full_pair_9_6 -7 wafer_to_full_pair_9_7
  -8 wafer_to_full_pair_9_8 -9 wafer_to_full_pair_9_9 -10 wafer_to_full_pair_9_10 -11 wafer_to_full_pair_9_11
  -12 wafer_to_full_pair_9_12 <= +0
 full_pairing_order_9_10: +1 wafer_to_full_pair_9_1 +2 wafer_to_full_pair_9_2 +3 wafer_to_full_pair_9_3
  +4 wafer_to_full_pair_9_4 +5 wafer_to_full_pair_9_5 +6 wafer_to_full_pair_9_6 +7 wafer_to_full_pair_9_7
  +8 wafer_to_full_pair_9_8 +9 wafer_to_full_pair_9_9 +10 wafer_to_full_pair_9_10 +11 wafer_to_full_pair_9_11
  +12 wafer_to_full_pair_9_12 -1 wafer_to_full_pair_10_1 -2 wafer_to_full_pair_10_2 -3 wafer_to_full_pair_10_3
  -4 wafer_to_full_pair_10_4 -5 wafer_to_full_pair_10_5 -6 wafer_to_full_pair_10_6 -7 wafer_to_full_pair_10_7
  -8 wafer_to_full_pair_10_8 -9 wafer_to_full_pair_10_9 -10 wafer_to_full_pair_10_10 -11 wafer_to_full_pair_10_11
  -12 wafer_to_full_pair_10_12 <= +0
 full_pairing_order_10_11: +1 wafer_to_full_pair_10_1 +2 wafer_to_full_pair_10_2 +3 wafer_to_full_pair_10_3
  +4 wafer_to_full_pair_10_4 +5 wafer_to_full_pair_10_5 +6 wafer_to_full_pair_10_6 +7 wafer_to_full_pair_10_7
  +8 wafer_to_full_pair_10_8 +9 wafer_to_full_pair_10_9 +10 wafer_to_full_pair_10_10 +11 wafer_to_full_pair_10_11
  +12 wafer_to_full_pair_10_12 -1 wafer_to_full_pair_11_1 -2 wafer_to_full_pair_11_2 -3 wafer_to_full_pair_11_3
  -4 wafer_to_full_pair_11_4 -5 wafer_to_full_pair_11_5 -6 wafer_to_full_pair_11_6 -7 wafer_to_full_pair_11_7
  -8 wafer_to_full_pair_11_8 -9 wafer_to_full_pair_11_9 -10 wafer_to_full_pair_11_10 -11 wafer_to_full_pair_11_11
  -12 wafer_to_full_pair_11_12 <= +0
 full_pairing_order_11_12: +1 wafer_to_full_pair_11_1 +2 wafer_to_full_pair_11_2 +3 wafer_to_full_pair_11_3
  +4 wafer_to_full_pair_11_4 +5 wafer_to_full_pair_11_5 +6 wafer_to_full_pair_11_6 +7 wafer_to_full_pair_11_7
  +8 wafer_to_full_pair_11_8 +9 wafer_to_full_pair_11_9 +10 wafer_to_full_pair_11_10 +11 wafer_to_full_pair_11_11
  +12 wafer_to_full_pair_11_12 -1 wafer_to_full_pair_12_1 -2 wafer_to_full_pair_12_2 -3 wafer_to_full_pair_12_3
  -4 wafer_to_full_pair_12_4 -5 wafer_to_full_pair_12_5 -6 wafer_to_full_pair_12_6 -7 wafer_to_full_pair_12_7
  -8 wafer_to_full_pair_12_8 -9 wafer_to_full_pair_12_9 -10 wafer_to_full_pair_12_10 -11 wafer_to_full_pair_12_11
  -12 wafer_to_full_pair_12_12 <= +0
 full_pairing_order_12_13: +1 wafer_to_full_pair_12_1 +2 wafer_to_full_pair_12_2 +3 wafer_to_full_pair_12_3
  +4 wafer_to_full_pair_12_4 +5 wafer_to_full_pair_12_5 +6 wafer_to_full_pair_12_6 +7 wafer_to_full_pair_12_7
  +8 wafer_to_full_pair_12_8 +9 wafer_to_full_pair_12_9 +10 wafer_to_full_pair_12_10 +11 wafer_to_full_pair_12_11
  +12 wafer_to_full_pair_12_12 -1 wafer_to_full_pair_13_1 -2 wafer_to_full_pair_13_2 -3 wafer_to_full_pair_13_3
  -4 wafer_to_full_pair_13_4 -5 wafer_to_full_pair_13_5 -6 wafer_to_full_pair_13_6 -7 wafer_to_full_pair_13_7
  -8 wafer_to_full_pair_13_8 -9 wafer_to_full_pair_13_9 -10 wafer_to_full_pair_13_10 -11 wafer_to_full_pair_13_11
  -12 wafer_to_full_pair_13_12 <= +0
 full_pairing_order_13_14: +1 wafer_to_full_pair_13_1 +2 wafer_to_full_pair_13_2 +3 wafer_to_full_pair_13_3
  +4 wafer_to_full_pair_13_4 +5 wafer_to_full_pair_13_5 +6 wafer_to_full_pair_13_6 +7 wafer_to_full_pair_13_7
  +8 wafer_to_full_pair_13_8 +9 wafer_to_full_pair_13_9 +10 wafer_to_full_pair_13_10 +11 wafer_to_full_pair_13_11
  +12 wafer_to_full_pair_13_12 -1 wafer_to_full_pair_14_1 -2 wafer_to_full_pair_14_2 -3 wafer_to_full_pair_14_3
  -4 wafer_to_full_pair_14_4 -5 wafer_to_full_pair_14_5 -6 wafer_to_full_pair_14_6 -7 wafer_to_full_pair_14_7
  -8 wafer_to_full_pair_14_8 -9 wafer_to_full_pair_14_9 -10 wafer_to_full_pair_14_10 -11 wafer_to_full_pair_14_11
  -12 wafer_to_full_pair_14_12 <= +0
 full_pairing_order_14_15: +1 wafer_to_full_pair_14_1 +2 wafer_to_full_pair_14_2 +3 wafer_to_full_pair_14_3
  +4 wafer_to_full_pair_14_4 +5 wafer_to_full_pair_14_5 +6 wafer_to_full_pair_14_6 +7 wafer_to_full_pair_14_7
  +8 wafer_to_full_pair_14_8 +9 wafer_to_full_pair_14_9 +10 wafer_to_full_pair_14_10 +11 wafer_to_full_pair_14_11
  +12 wafer_to_full_pair_14_12 -1 wafer_to_full_pair_15_1 -2 wafer_to_full_pair_15_2 -3 wafer_to_full_pair_15_3
  -4 wafer_to_full_pair_15_4 -5 wafer_to_full_pair_15_5 -6 wafer_to_full_pair_15_6 -7 wafer_to_full_pair_15_7
  -8 wafer_to_full_pair_15_8 -9 wafer_to_full_pair_15_9 -10 wafer_to_full_pair_15_10 -11 wafer_to_full_pair_15_11
  -12 wafer_to_full_pair_15_12 <= +0
 full_pairing_order_15_16: +1 wafer_to_full_pair_15_1 +2 wafer_to_full_pair_15_2 +3 wafer_to_full_pair_15_3
  +4 wafer_to_full_pair_15_4 +5 wafer_to_full_pair_15_5 +6 wafer_to_full_pair_15_6 +7 wafer_to_full_pair_15_7
  +8 wafer_to_full_pair_15_8 +9 wafer_to_full_pair_15_9 +10 wafer_to_full_pair_15_10 +11 wafer_to_full_pair_15_11
  +12 wafer_to_full_pair_15_12 -1 wafer_to_full_pair_16_1 -2 wafer_to_full_pair_16_2 -3 wafer_to_full_pair_16_3
  -4 wafer_to_full_pair_16_4 -5 wafer_to_full_pair_16_5 -6 wafer_to_full_pair_16_6 -7 wafer_to_full_pair_16_7
  -8 wafer_to_full_pair_16_8 -9 wafer_to_full_pair_16_9 -10 wafer_to_full_pair_16_10 -11 wafer_to_full_pair_16_11
  -12 wafer_to_full_pair_16_12 <= +0
 full_pairing_order_16_17: +1 wafer_to_full_pair_16_1 +2 wafer_to_full_pair_16_2 +3 wafer_to_full_pair_16_3
  +4 wafer_to_full_pair_16_4 +5 wafer_to_full_pair_16_5 +6 wafer_to_full_pair_16_6 +7 wafer_to_full_pair_16_7
  +8 wafer_to_full_pair_16_8 +9 wafer_to_full_pair_16_9 +10 wafer_to_full_pair_16_10 +11 wafer_to_full_pair_16_11
  +12 wafer_to_full_pair_16_12 -1 wafer_to_full_pair_17_1 -2 wafer_to_full_pair_17_2 -3 wafer_to_full_pair_17_3
  -4 wafer_to_full_pair_17_4 -5 wafer_to_full_pair_17_5 -6 wafer_to_full_pair_17_6 -7 wafer_to_full_pair_17_7
  -8 wafer_to_full_pair_17_8 -9 wafer_to_full_pair_17_9 -10 wafer_to_full_pair_17_10 -11 wafer_to_full_pair_17_11
  -12 wafer_to_full_pair_17_12 <= +0
 full_pairing_order_17_18: +1 wafer_to_full_pair_17_1 +2 wafer_to_full_pair_17_2 +3 wafer_to_full_pair_17_3
  +4 wafer_to_full_pair_17_4 +5 wafer_to_full_pair_17_5 +6 wafer_to_full_pair_17_6 +7 wafer_to_full_pair_17_7
  +8 wafer_to_full_pair_17_8 +9 wafer_to_full_pair_17_9 +10 wafer_to_full_pair_17_10 +11 wafer_to_full_pair_17_11
  +12 wafer_to_full_pair_17_12 -1 wafer_to_full_pair_18_1 -2 wafer_to_full_pair_18_2 -3 wafer_to_full_pair_18_3
  -4 wafer_to_full_pair_18_4 -5 wafer_to_full_pair_18_5 -6 wafer_to_full_pair_18_6 -7 wafer_to_full_pair_18_7
  -8 wafer_to_full_pair_18_8 -9 wafer_to_full_pair_18_9 -10 wafer_to_full_pair_18_10 -11 wafer_to_full_pair_18_11
  -12 wafer_to_full_pair_18_12 <= +0
 full_pairing_order_18_19: +1 wafer_to_full_pair_18_1 +2 wafer_to_full_pair_18_2 +3 wafer_to_full_pair_18_3
  +4 wafer_to_full_pair_18_4 +5 wafer_to_full_pair_18_5 +6 wafer_to_full_pair_18_6 +7 wafer_to_full_pair_18_7
  +8 wafer_to_full_pair_18_8 +9 wafer_to_full_pair_18_9 +10 wafer_to_full_pair_18_10 +11 wafer_to_full_pair_18_11
  +12 wafer_to_full_pair_18_12 -1 wafer_to_full_pair_19_1 -2 wafer_to_full_pair_19_2 -3 wafer_to_full_pair_19_3
  -4 wafer_to_full_pair_19_4 -5 wafer_to_full_pair_19_5 -6 wafer_to_full_pair_19_6 -7 wafer_to_full_pair_19_7
  -8 wafer_to_full_pair_19_8 -9 wafer_to_full_pair_19_9 -10 wafer_to_full_pair_19_10 -11 wafer_to_full_pair_19_11
  -12 wafer_to_full_pair_19_12 <= +0
 full_pairing_order_19_20: +1 wafer_to_full_pair_19_1 +2 wafer_to_full_pair_19_2 +3 wafer_to_full_pair_19_3
  +4 wafer_to_full_pair_19_4 +5 wafer_to_full_pair_19_5 +6 wafer_to_full_pair_19_6 +7 wafer_to_full_pair_19_7
  +8 wafer_to_full_pair_19_8 +9 wafer_to_full_pair_19_9 +10 wafer_to_full_pair_19_10 +11 wafer_to_full_pair_19_11
  +12 wafer_to_full_pair_19_12 -1 wafer_to_full_pair_20_1 -2 wafer_to_full_pair_20_2 -3 wafer_to_full_pair_20_3
  -4 wafer_to_full_pair_20_4 -5 wafer_to_full_pair_20_5 -6 wafer_to_full_pair_20_6 -7 wafer_to_full_pair_20_7
  -8 wafer_to_full_pair_20_8 -9 wafer_to_full_pair_20_9 -10 wafer_to_full_pair_20_10 -11 wafer_to_full_pair_20_11
  -12 wafer_to_full_pair_20_12 <= +0
 full_pairing_order_20_21: +1 wafer_to_full_pair_20_1 +2 wafer_to_full_pair_20_2 +3 wafer_to_full_pair_20_3
  +4 wafer_to_full_pair_20_4 +5 wafer_to_full_pair_20_5 +6 wafer_to_full_pair_20_6 +7 wafer_to_full_pair_20_7
  +8 wafer_to_full_pair_20_8 +9 wafer_to_full_pair_20_9 +10 wafer_to_full_pair_20_10 +11 wafer_to_full_pair_20_11
  +12 wafer_to_full_pair_20_12 -1 wafer_to_full_pair_21_1 -2 wafer_to_full_pair_21_2 -3 wafer_to_full_pair_21_3
  -4 wafer_to_full_pair_21_4 -5 wafer_to_full_pair_21_5 -6 wafer_to_full_pair_21_6 -7 wafer_to_full_pair_21_7
  -8 wafer_to_full_pair_21_8 -9 wafer_to_full_pair_21_9 -10 wafer_to_full_pair_21_10 -11 wafer_to_full_pair_21_11
  -12 wafer_to_full_pair_21_12 <= +0
 full_pairing_order_21_22: +1 wafer_to_full_pair_21_1 +2 wafer_to_full_pair_21_2 +3 wafer_to_full_pair_21_3
  +4 wafer_to_full_pair_21_4 +5 wafer_to_full_pair_21_5 +6 wafer_to_full_pair_21_6 +7 wafer_to_full_pair_21_7
  +8 wafer_to_full_pair_21_8 +9 wafer_to_full_pair_21_9 +10 wafer_to_full_pair_21_10 +11 wafer_to_full_pair_21_11
  +12 wafer_to_full_pair_21_12 -1 wafer_to_full_pair_22_1 -2 wafer_to_full_pair_22_2 -3 wafer_to_full_pair_22_3
  -4 wafer_to_full_pair_22_4 -5 wafer_to_full_pair_22_5 -6 wafer_to_full_pair_22_6 -7 wafer_to_full_pair_22_7
  -8 wafer_to_full_pair_22_8 -9 wafer_to_full_pair_22_9 -10 wafer_to_full_pair_22_10 -11 wafer_to_full_pair_22_11
  -12 wafer_to_full_pair_22_12 <= +0
 full_pairing_order_22_23: +1 wafer_to_full_pair_22_1 +2 wafer_to_full_pair_22_2 +3 wafer_to_full_pair_22_3
  +4 wafer_to_full_pair_22_4 +5 wafer_to_full_pair_22_5 +6 wafer_to_full_pair_22_6 +7 wafer_to_full_pair_22_7
  +8 wafer_to_full_pair_22_8 +9 wafer_to_full_pair_22_9 +10 wafer_to_full_pair_22_10 +11 wafer_to_full_pair_22_11
  +12 wafer_to_full_pair_22_12 -1 wafer_to_full_pair_23_1 -2 wafer_to_full_pair_23_2 -3 wafer_to_full_pair_23_3
  -4 wafer_to_full_pair_23_4 -5 wafer_to_full_pair_23_5 -6 wafer_to_full_pair_23_6 -7 wafer_to_full_pair_23_7
  -8 wafer_to_full_pair_23_8 -9 wafer_to_full_pair_23_9 -10 wafer_to_full_pair_23_10 -11 wafer_to_full_pair_23_11
  -12 wafer_to_full_pair_23_12 <= +0
 full_pairing_order_23_24: +1 wafer_to_full_pair_23_1 +2 wafer_to_full_pair_23_2 +3 wafer_to_full_pair_23_3
  +4 wafer_to_full_pair_23_4 +5 wafer_to_full_pair_23_5 +6 wafer_to_full_pair_23_6 +7 wafer_to_full_pair_23_7
  +8 wafer_to_full_pair_23_8 +9 wafer_to_full_pair_23_9 +10 wafer_to_full_pair_23_10 +11 wafer_to_full_pair_23_11
  +12 wafer_to_full_pair_23_12 -1 wafer_to_full_pair_24_1 -2 wafer_to_full_pair_24_2 -3 wafer_to_full_pair_24_3
  -4 wafer_to_full_pair_24_4 -5 wafer_to_full_pair_24_5 -6 wafer_to_full_pair_24_6 -7 wafer_to_full_pair_24_7
  -8 wafer_to_full_pair_24_8 -9 wafer_to_full_pair_24_9 -10 wafer_to_full_pair_24_10 -11 wafer_to_full_pair_24_11
  -12 wafer_to_full_pair_24_12 <= +0
 mix_wafer_assign_once_25: +1 wafer_to_mix_pair_25_1 +1 wafer_to_mix_pair_25_2 +1 wafer_to_mix_pair_25_3
  +1 wafer_to_mix_pair_25_4 +1 wafer_to_mix_pair_25_5 +1 wafer_to_mix_pair_25_6 +1 wafer_to_mix_pair_25_7
  +1 wafer_to_mix_pair_25_8 = +1
 mix_wafer_assign_once_26: +1 wafer_to_mix_pair_26_1 +1 wafer_to_mix_pair_26_2 +1 wafer_to_mix_pair_26_3
  +1 wafer_to_mix_pair_26_4 +1 wafer_to_mix_pair_26_5 +1 wafer_to_mix_pair_26_6 +1 wafer_to_mix_pair_26_7
  +1 wafer_to_mix_pair_26_8 = +1
 mix_wafer_assign_once_27: +1 wafer_to_mix_pair_27_1 +1 wafer_to_mix_pair_27_2 +1 wafer_to_mix_pair_27_3
  +1 wafer_to_mix_pair_27_4 +1 wafer_to_mix_pair_27_5 +1 wafer_to_mix_pair_27_6 +1 wafer_to_mix_pair_27_7
  +1 wafer_to_mix_pair_27_8 = +1
 mix_wafer_assign_once_28: +1 wafer_to_mix_pair_28_1 +1 wafer_to_mix_pair_28_2 +1 wafer_to_mix_pair_28_3
  +1 wafer_to_mix_pair_28_4 +1 wafer_to_mix_pair_28_5 +1 wafer_to_mix_pair_28_6 +1 wafer_to_mix_pair_28_7
  +1 wafer_to_mix_pair_28_8 = +1
 mix_wafer_assign_once_29: +1 wafer_to_mix_pair_29_1 +1 wafer_to_mix_pair_29_2 +1 wafer_to_mix_pair_29_3
  +1 wafer_to_mix_pair_29_4 +1 wafer_to_mix_pair_29_5 +1 wafer_to_mix_pair_29_6 +1 wafer_to_mix_pair_29_7
  +1 wafer_to_mix_pair_29_8 = +1
 mix_wafer_assign_once_30: +1 wafer_to_mix_pair_30_1 +1 wafer_to_mix_pair_30_2 +1 wafer_to_mix_pair_30_3
  +1 wafer_to_mix_pair_30_4 +1 wafer_to_mix_pair_30_5 +1 wafer_to_mix_pair_30_6 +1 wafer_to_mix_pair_30_7
  +1 wafer_to_mix_pair_30_8 = +1
 mix_wafer_assign_once_31: +1 wafer_to_mix_pair_31_1 +1 wafer_to_mix_pair_31_2 +1 wafer_to_mix_pair_31_3
  +1 wafer_to_mix_pair_31_4 +1 wafer_to_mix_pair_31_5 +1 wafer_to_mix_pair_31_6 +1 wafer_to_mix_pair_31_7
  +1 wafer_to_mix_pair_31_8 = +1
 mix_wafer_assign_once_32: +1 wafer_to_mix_pair_32_1 +1 wafer_to_mix_pair_32_2 +1 wafer_to_mix_pair_32_3
  +1 wafer_to_mix_pair_32_4 +1 wafer_to_mix_pair_32_5 +1 wafer_to_mix_pair_32_6 +1 wafer_to_mix_pair_32_7
  +1 wafer_to_mix_pair_32_8 = +1
 mix_wafer_assign_once_33: +1 wafer_to_mix_pair_33_1 +1 wafer_to_mix_pair_33_2 +1 wafer_to_mix_pair_33_3
  +1 wafer_to_mix_pair_33_4 +1 wafer_to_mix_pair_33_5 +1 wafer_to_mix_pair_33_6 +1 wafer_to_mix_pair_33_7
  +1 wafer_to_mix_pair_33_8 = +1
 mix_wafer_assign_once_34: +1 wafer_to_mix_pair_34_1 +1 wafer_to_mix_pair_34_2 +1 wafer_to_mix_pair_34_3
  +1 wafer_to_mix_pair_34_4 +1 wafer_to_mix_pair_34_5 +1 wafer_to_mix_pair_34_6 +1 wafer_to_mix_pair_34_7
  +1 wafer_to_mix_pair_34_8 = +1
 mix_wafer_assign_once_35: +1 wafer_to_mix_pair_35_1 +1 wafer_to_mix_pair_35_2 +1 wafer_to_mix_pair_35_3
  +1 wafer_to_mix_pair_35_4 +1 wafer_to_mix_pair_35_5 +1 wafer_to_mix_pair_35_6 +1 wafer_to_mix_pair_35_7
  +1 wafer_to_mix_pair_35_8 = +1
 mix_wafer_assign_once_36: +1 wafer_to_mix_pair_36_1 +1 wafer_to_mix_pair_36_2 +1 wafer_to_mix_pair_36_3
  +1 wafer_to_mix_pair_36_4 +1 wafer_to_mix_pair_36_5 +1 wafer_to_mix_pair_36_6 +1 wafer_to_mix_pair_36_7
  +1 wafer_to_mix_pair_36_8 = +1
 mix_wafer_assign_once_37: +1 wafer_to_mix_pair_37_1 +1 wafer_to_mix_pair_37_2 +1 wafer_to_mix_pair_37_3
  +1 wafer_to_mix_pair_37_4 +1 wafer_to_mix_pair_37_5 +1 wafer_to_mix_pair_37_6 +1 wafer_to_mix_pair_37_7
  +1 wafer_to_mix_pair_37_8 = +1
 mix_wafer_assign_once_38: +1 wafer_to_mix_pair_38_1 +1 wafer_to_mix_pair_38_2 +1 wafer_to_mix_pair_38_3
  +1 wafer_to_mix_pair_38_4 +1 wafer_to_mix_pair_38_5 +1 wafer_to_mix_pair_38_6 +1 wafer_to_mix_pair_38_7
  +1 wafer_to_mix_pair_38_8 = +1
 mix_wafer_assign_once_39: +1 wafer_to_mix_pair_39_1 +1 wafer_to_mix_pair_39_2 +1 wafer_to_mix_pair_39_3
  +1 wafer_to_mix_pair_39_4 +1 wafer_to_mix_pair_39_5 +1 wafer_to_mix_pair_39_6 +1 wafer_to_mix_pair_39_7
  +1 wafer_to_mix_pair_39_8 = +1
 mix_pair_capacity_1: +1 wafer_to_mix_pair_25_1 +1 wafer_to_mix_pair_26_1 +1 wafer_to_mix_pair_27_1 +1 wafer_to_mix_pair_28_1
  +1 wafer_to_mix_pair_29_1 +1 wafer_to_mix_pair_30_1 +1 wafer_to_mix_pair_31_1 +1 wafer_to_mix_pair_32_1
  +1 wafer_to_mix_pair_33_1 +1 wafer_to_mix_pair_34_1 +1 wafer_to_mix_pair_35_1 +1 wafer_to_mix_pair_36_1
  +1 wafer_to_mix_pair_37_1 +1 wafer_to_mix_pair_38_1 +1 wafer_to_mix_pair_39_1 = +2
 mix_pair_capacity_2: +1 wafer_to_mix_pair_25_2 +1 wafer_to_mix_pair_26_2 +1 wafer_to_mix_pair_27_2 +1 wafer_to_mix_pair_28_2
  +1 wafer_to_mix_pair_29_2 +1 wafer_to_mix_pair_30_2 +1 wafer_to_mix_pair_31_2 +1 wafer_to_mix_pair_32_2
  +1 wafer_to_mix_pair_33_2 +1 wafer_to_mix_pair_34_2 +1 wafer_to_mix_pair_35_2 +1 wafer_to_mix_pair_36_2
  +1 wafer_to_mix_pair_37_2 +1 wafer_to_mix_pair_38_2 +1 wafer_to_mix_pair_39_2 = +2
 mix_pair_capacity_3: +1 wafer_to_mix_pair_25_3 +1 wafer_to_mix_pair_26_3 +1 wafer_to_mix_pair_27_3 +1 wafer_to_mix_pair_28_3
  +1 wafer_to_mix_pair_29_3 +1 wafer_to_mix_pair_30_3 +1 wafer_to_mix_pair_31_3 +1 wafer_to_mix_pair_32_3
  +1 wafer_to_mix_pair_33_3 +1 wafer_to_mix_pair_34_3 +1 wafer_to_mix_pair_35_3 +1 wafer_to_mix_pair_36_3
  +1 wafer_to_mix_pair_37_3 +1 wafer_to_mix_pair_38_3 +1 wafer_to_mix_pair_39_3 = +2
 mix_pair_capacity_4: +1 wafer_to_mix_pair_25_4 +1 wafer_to_mix_pair_26_4 +1 wafer_to_mix_pair_27_4 +1 wafer_to_mix_pair_28_4
  +1 wafer_to_mix_pair_29_4 +1 wafer_to_mix_pair_30_4 +1 wafer_to_mix_pair_31_4 +1 wafer_to_mix_pair_32_4
  +1 wafer_to_mix_pair_33_4 +1 wafer_to_mix_pair_34_4 +1 wafer_to_mix_pair_35_4 +1 wafer_to_mix_pair_36_4
  +1 wafer_to_mix_pair_37_4 +1 wafer_to_mix_pair_38_4 +1 wafer_to_mix_pair_39_4 = +2
 mix_pair_capacity_5: +1 wafer_to_mix_pair_25_5 +1 wafer_to_mix_pair_26_5 +1 wafer_to_mix_pair_27_5 +1 wafer_to_mix_pair_28_5
  +1 wafer_to_mix_pair_29_5 +1 wafer_to_mix_pair_30_5 +1 wafer_to_mix_pair_31_5 +1 wafer_to_mix_pair_32_5
  +1 wafer_to_mix_pair_33_5 +1 wafer_to_mix_pair_34_5 +1 wafer_to_mix_pair_35_5 +1 wafer_to_mix_pair_36_5
  +1 wafer_to_mix_pair_37_5 +1 wafer_to_mix_pair_38_5 +1 wafer_to_mix_pair_39_5 = +2
 mix_pair_capacity_6: +1 wafer_to_mix_pair_25_6 +1 wafer_to_mix_pair_26_6 +1 wafer_to_mix_pair_27_6 +1 wafer_to_mix_pair_28_6
  +1 wafer_to_mix_pair_29_6 +1 wafer_to_mix_pair_30_6 +1 wafer_to_mix_pair_31_6 +1 wafer_to_mix_pair_32_6
  +1 wafer_to_mix_pair_33_6 +1 wafer_to_mix_pair_34_6 +1 wafer_to_mix_pair_35_6 +1 wafer_to_mix_pair_36_6
  +1 wafer_to_mix_pair_37_6 +1 wafer_to_mix_pair_38_6 +1 wafer_to_mix_pair_39_6 = +2
 mix_pair_capacity_7: +1 wafer_to_mix_pair_25_7 +1 wafer_to_mix_pair_26_7 +1 wafer_to_mix_pair_27_7 +1 wafer_to_mix_pair_28_7
  +1 wafer_to_mix_pair_29_7 +1 wafer_to_mix_pair_30_7 +1 wafer_to_mix_pair_31_7 +1 wafer_to_mix_pair_32_7
  +1 wafer_to_mix_pair_33_7 +1 wafer_to_mix_pair_34_7 +1 wafer_to_mix_pair_35_7 +1 wafer_to_mix_pair_36_7
  +1 wafer_to_mix_pair_37_7 +1 wafer_to_mix_pair_38_7 +1 wafer_to_mix_pair_39_7 = +2
 mix_pair_capacity_8: +1 wafer_to_mix_pair_25_8 +1 wafer_to_mix_pair_26_8 +1 wafer_to_mix_pair_27_8 +1 wafer_to_mix_pair_28_8
  +1 wafer_to_mix_pair_29_8 +1 wafer_to_mix_pair_30_8 +1 wafer_to_mix_pair_31_8 +1 wafer_to_mix_pair_32_8
  +1 wafer_to_mix_pair_33_8 +1 wafer_to_mix_pair_34_8 +1 wafer_to_mix_pair_35_8 +1 wafer_to_mix_pair_36_8
  +1 wafer_to_mix_pair_37_8 +1 wafer_to_mix_pair_38_8 +1 wafer_to_mix_pair_39_8 = +1
 mix_pairing_order_25_26: +1 wafer_to_mix_pair_25_1 +2 wafer_to_mix_pair_25_2 +3 wafer_to_mix_pair_25_3
  +4 wafer_to_mix_pair_25_4 +5 wafer_to_mix_pair_25_5 +6 wafer_to_mix_pair_25_6 +7 wafer_to_mix_pair_25_7
  +8 wafer_to_mix_pair_25_8 -1 wafer_to_mix_pair_26_1 -2 wafer_to_mix_pair_26_2 -3 wafer_to_mix_pair_26_3
  -4 wafer_to_mix_pair_26_4 -5 wafer_to_mix_pair_26_5 -6 wafer_to_mix_pair_26_6 -7 wafer_to_mix_pair_26_7
  -8 wafer_to_mix_pair_26_8 <= +0
 mix_pairing_order_26_27: +1 wafer_to_mix_pair_26_1 +2 wafer_to_mix_pair_26_2 +3 wafer_to_mix_pair_26_3
  +4 wafer_to_mix_pair_26_4 +5 wafer_to_mix_pair_26_5 +6 wafer_to_mix_pair_26_6 +7 wafer_to_mix_pair_26_7
  +8 wafer_to_mix_pair_26_8 -1 wafer_to_mix_pair_27_1 -2 wafer_to_mix_pair_27_2 -3 wafer_to_mix_pair_27_3
  -4 wafer_to_mix_pair_27_4 -5 wafer_to_mix_pair_27_5 -6 wafer_to_mix_pair_27_6 -7 wafer_to_mix_pair_27_7
  -8 wafer_to_mix_pair_27_8 <= +0
 mix_pairing_order_27_28: +1 wafer_to_mix_pair_27_1 +2 wafer_to_mix_pair_27_2 +3 wafer_to_mix_pair_27_3
  +4 wafer_to_mix_pair_27_4 +5 wafer_to_mix_pair_27_5 +6 wafer_to_mix_pair_27_6 +7 wafer_to_mix_pair_27_7
  +8 wafer_to_mix_pair_27_8 -1 wafer_to_mix_pair_28_1 -2 wafer_to_mix_pair_28_2 -3 wafer_to_mix_pair_28_3
  -4 wafer_to_mix_pair_28_4 -5 wafer_to_mix_pair_28_5 -6 wafer_to_mix_pair_28_6 -7 wafer_to_mix_pair_28_7
  -8 wafer_to_mix_pair_28_8 <= +0
 mix_pairing_order_28_29: +1 wafer_to_mix_pair_28_1 +2 wafer_to_mix_pair_28_2 +3 wafer_to_mix_pair_28_3
  +4 wafer_to_mix_pair_28_4 +5 wafer_to_mix_pair_28_5 +6 wafer_to_mix_pair_28_6 +7 wafer_to_mix_pair_28_7
  +8 wafer_to_mix_pair_28_8 -1 wafer_to_mix_pair_29_1 -2 wafer_to_mix_pair_29_2 -3 wafer_to_mix_pair_29_3
  -4 wafer_to_mix_pair_29_4 -5 wafer_to_mix_pair_29_5 -6 wafer_to_mix_pair_29_6 -7 wafer_to_mix_pair_29_7
  -8 wafer_to_mix_pair_29_8 <= +0
 mix_pairing_order_29_30: +1 wafer_to_mix_pair_29_1 +2 wafer_to_mix_pair_29_2 +3 wafer_to_mix_pair_29_3
  +4 wafer_to_mix_pair_29_4 +5 wafer_to_mix_pair_29_5 +6 wafer_to_mix_pair_29_6 +7 wafer_to_mix_pair_29_7
  +8 wafer_to_mix_pair_29_8 -1 wafer_to_mix_pair_30_1 -2 wafer_to_mix_pair_30_2 -3 wafer_to_mix_pair_30_3
  -4 wafer_to_mix_pair_30_4 -5 wafer_to_mix_pair_30_5 -6 wafer_to_mix_pair_30_6 -7 wafer_to_mix_pair_30_7
  -8 wafer_to_mix_pair_30_8 <= +0
 mix_pairing_order_30_31: +1 wafer_to_mix_pair_30_1 +2 wafer_to_mix_pair_30_2 +3 wafer_to_mix_pair_30_3
  +4 wafer_to_mix_pair_30_4 +5 wafer_to_mix_pair_30_5 +6 wafer_to_mix_pair_30_6 +7 wafer_to_mix_pair_30_7
  +8 wafer_to_mix_pair_30_8 -1 wafer_to_mix_pair_31_1 -2 wafer_to_mix_pair_31_2 -3 wafer_to_mix_pair_31_3
  -4 wafer_to_mix_pair_31_4 -5 wafer_to_mix_pair_31_5 -6 wafer_to_mix_pair_31_6 -7 wafer_to_mix_pair_31_7
  -8 wafer_to_mix_pair_31_8 <= +0
 mix_pairing_order_31_32: +1 wafer_to_mix_pair_31_1 +2 wafer_to_mix_pair_31_2 +3 wafer_to_mix_pair_31_3
  +4 wafer_to_mix_pair_31_4 +5 wafer_to_mix_pair_31_5 +6 wafer_to_mix_pair_31_6 +7 wafer_to_mix_pair_31_7
  +8 wafer_to_mix_pair_31_8 -1 wafer_to_mix_pair_32_1 -2 wafer_to_mix_pair_32_2 -3 wafer_to_mix_pair_32_3
  -4 wafer_to_mix_pair_32_4 -5 wafer_to_mix_pair_32_5 -6 wafer_to_mix_pair_32_6 -7 wafer_to_mix_pair_32_7
  -8 wafer_to_mix_pair_32_8 <= +0
 mix_pairing_order_32_33: +1 wafer_to_mix_pair_32_1 +2 wafer_to_mix_pair_32_2 +3 wafer_to_mix_pair_32_3
  +4 wafer_to_mix_pair_32_4 +5 wafer_to_mix_pair_32_5 +6 wafer_to_mix_pair_32_6 +7 wafer_to_mix_pair_32_7
  +8 wafer_to_mix_pair_32_8 -1 wafer_to_mix_pair_33_1 -2 wafer_to_mix_pair_33_2 -3 wafer_to_mix_pair_33_3
  -4 wafer_to_mix_pair_33_4 -5 wafer_to_mix_pair_33_5 -6 wafer_to_mix_pair_33_6 -7 wafer_to_mix_pair_33_7
  -8 wafer_to_mix_pair_33_8 <= +0
 mix_pairing_order_33_34: +1 wafer_to_mix_pair_33_1 +2 wafer_to_mix_pair_33_2 +3 wafer_to_mix_pair_33_3
  +4 wafer_to_mix_pair_33_4 +5 wafer_to_mix_pair_33_5 +6 wafer_to_mix_pair_33_6 +7 wafer_to_mix_pair_33_7
  +8 wafer_to_mix_pair_33_8 -1 wafer_to_mix_pair_34_1 -2 wafer_to_mix_pair_34_2 -3 wafer_to_mix_pair_34_3
  -4 wafer_to_mix_pair_34_4 -5 wafer_to_mix_pair_34_5 -6 wafer_to_mix_pair_34_6 -7 wafer_to_mix_pair_34_7
  -8 wafer_to_mix_pair_34_8 <= +0
 mix_pairing_order_34_35: +1 wafer_to_mix_pair_34_1 +2 wafer_to_mix_pair_34_2 +3 wafer_to_mix_pair_34_3
  +4 wafer_to_mix_pair_34_4 +5 wafer_to_mix_pair_34_5 +6 wafer_to_mix_pair_34_6 +7 wafer_to_mix_pair_34_7
  +8 wafer_to_mix_pair_34_8 -1 wafer_to_mix_pair_35_1 -2 wafer_to_mix_pair_35_2 -3 wafer_to_mix_pair_35_3
  -4 wafer_to_mix_pair_35_4 -5 wafer_to_mix_pair_35_5 -6 wafer_to_mix_pair_35_6 -7 wafer_to_mix_pair_35_7
  -8 wafer_to_mix_pair_35_8 <= +0
 mix_pairing_order_35_36: +1 wafer_to_mix_pair_35_1 +2 wafer_to_mix_pair_35_2 +3 wafer_to_mix_pair_35_3
  +4 wafer_to_mix_pair_35_4 +5 wafer_to_mix_pair_35_5 +6 wafer_to_mix_pair_35_6 +7 wafer_to_mix_pair_35_7
  +8 wafer_to_mix_pair_35_8 -1 wafer_to_mix_pair_36_1 -2 wafer_to_mix_pair_36_2 -3 wafer_to_mix_pair_36_3
  -4 wafer_to_mix_pair_36_4 -5 wafer_to_mix_pair_36_5 -6 wafer_to_mix_pair_36_6 -7 wafer_to_mix_pair_36_7
  -8 wafer_to_mix_pair_36_8 <= +0
 mix_pairing_order_36_37: +1 wafer_to_mix_pair_36_1 +2 wafer_to_mix_pair_36_2 +3 wafer_to_mix_pair_36_3
  +4 wafer_to_mix_pair_36_4 +5 wafer_to_mix_pair_36_5 +6 wafer_to_mix_pair_36_6 +7 wafer_to_mix_pair_36_7
  +8 wafer_to_mix_pair_36_8 -1 wafer_to_mix_pair_37_1 -2 wafer_to_mix_pair_37_2 -3 wafer_to_mix_pair_37_3
  -4 wafer_to_mix_pair_37_4 -5 wafer_to_mix_pair_37_5 -6 wafer_to_mix_pair_37_6 -7 wafer_to_mix_pair_37_7
  -8 wafer_to_mix_pair_37_8 <= +0
 mix_pairing_order_37_38: +1 wafer_to_mix_pair_37_1 +2 wafer_to_mix_pair_37_2 +3 wafer_to_mix_pair_37_3
  +4 wafer_to_mix_pair_37_4 +5 wafer_to_mix_pair_37_5 +6 wafer_to_mix_pair_37_6 +7 wafer_to_mix_pair_37_7
  +8 wafer_to_mix_pair_37_8 -1 wafer_to_mix_pair_38_1 -2 wafer_to_mix_pair_38_2 -3 wafer_to_mix_pair_38_3
  -4 wafer_to_mix_pair_38_4 -5 wafer_to_mix_pair_38_5 -6 wafer_to_mix_pair_38_6 -7 wafer_to_mix_pair_38_7
  -8 wafer_to_mix_pair_38_8 <= +0
 mix_pairing_order_38_39: +1 wafer_to_mix_pair_38_1 +2 wafer_to_mix_pair_38_2 +3 wafer_to_mix_pair_38_3
  +4 wafer_to_mix_pair_38_4 +5 wafer_to_mix_pair_38_5 +6 wafer_to_mix_pair_38_6 +7 wafer_to_mix_pair_38_7
  +8 wafer_to_mix_pair_38_8 -1 wafer_to_mix_pair_39_1 -2 wafer_to_mix_pair_39_2 -3 wafer_to_mix_pair_39_3
  -4 wafer_to_mix_pair_39_4 -5 wafer_to_mix_pair_39_5 -6 wafer_to_mix_pair_39_6 -7 wafer_to_mix_pair_39_7
  -8 wafer_to_mix_pair_39_8 <= +0
 full_pair_schedule_once_1: +1 assign_full_1_1_1 +1 assign_full_1_1_2 +1 assign_full_1_1_3 +1 assign_full_1_1_4
  +1 assign_full_1_1_5 +1 assign_full_1_1_6 +1 assign_full_1_1_7 +1 assign_full_1_1_8 +1 assign_full_1_1_9
  +1 assign_full_1_1_10 +1 assign_full_1_2_1 +1 assign_full_1_2_2 +1 assign_full_1_2_3 +1 assign_full_1_2_4
  +1 assign_full_1_2_5 +1 assign_full_1_2_6 +1 assign_full_1_2_7 +1 assign_full_1_2_8 +1 assign_full_1_2_9
  +1 assign_full_1_2_10 = +1
 full_pair_schedule_once_2: +1 assign_full_2_1_1 +1 assign_full_2_1_2 +1 assign_full_2_1_3 +1 assign_full_2_1_4
  +1 assign_full_2_1_5 +1 assign_full_2_1_6 +1 assign_full_2_1_7 +1 assign_full_2_1_8 +1 assign_full_2_1_9
  +1 assign_full_2_1_10 +1 assign_full_2_2_1 +1 assign_full_2_2_2 +1 assign_full_2_2_3 +1 assign_full_2_2_4
  +1 assign_full_2_2_5 +1 assign_full_2_2_6 +1 assign_full_2_2_7 +1 assign_full_2_2_8 +1 assign_full_2_2_9
  +1 assign_full_2_2_10 = +1
 full_pair_schedule_once_3: +1 assign_full_3_1_1 +1 assign_full_3_1_2 +1 assign_full_3_1_3 +1 assign_full_3_1_4
  +1 assign_full_3_1_5 +1 assign_full_3_1_6 +1 assign_full_3_1_7 +1 assign_full_3_1_8 +1 assign_full_3_1_9
  +1 assign_full_3_1_10 +1 assign_full_3_2_1 +1 assign_full_3_2_2 +1 assign_full_3_2_3 +1 assign_full_3_2_4
  +1 assign_full_3_2_5 +1 assign_full_3_2_6 +1 assign_full_3_2_7 +1 assign_full_3_2_8 +1 assign_full_3_2_9
  +1 assign_full_3_2_10 = +1
 full_pair_schedule_once_4: +1 assign_full_4_1_1 +1 assign_full_4_1_2 +1 assign_full_4_1_3 +1 assign_full_4_1_4
  +1 assign_full_4_1_5 +1 assign_full_4_1_6 +1 assign_full_4_1_7 +1 assign_full_4_1_8 +1 assign_full_4_1_9
  +1 assign_full_4_1_10 +1 assign_full_4_2_1 +1 assign_full_4_2_2 +1 assign_full_4_2_3 +1 assign_full_4_2_4
  +1 assign_full_4_2_5 +1 assign_full_4_2_6 +1 assign_full_4_2_7 +1 assign_full_4_2_8 +1 assign_full_4_2_9
  +1 assign_full_4_2_10 = +1
 full_pair_schedule_once_5: +1 assign_full_5_1_1 +1 assign_full_5_1_2 +1 assign_full_5_1_3 +1 assign_full_5_1_4
  +1 assign_full_5_1_5 +1 assign_full_5_1_6 +1 assign_full_5_1_7 +1 assign_full_5_1_8 +1 assign_full_5_1_9
  +1 assign_full_5_1_10 +1 assign_full_5_2_1 +1 assign_full_5_2_2 +1 assign_full_5_2_3 +1 assign_full_5_2_4
  +1 assign_full_5_2_5 +1 assign_full_5_2_6 +1 assign_full_5_2_7 +1 assign_full_5_2_8 +1 assign_full_5_2_9
  +1 assign_full_5_2_10 = +1
 full_pair_schedule_once_6: +1 assign_full_6_1_1 +1 assign_full_6_1_2 +1 assign_full_6_1_3 +1 assign_full_6_1_4
  +1 assign_full_6_1_5 +1 assign_full_6_1_6 +1 assign_full_6_1_7 +1 assign_full_6_1_8 +1 assign_full_6_1_9
  +1 assign_full_6_1_10 +1 assign_full_6_2_1 +1 assign_full_6_2_2 +1 assign_full_6_2_3 +1 assign_full_6_2_4
  +1 assign_full_6_2_5 +1 assign_full_6_2_6 +1 assign_full_6_2_7 +1 assign_full_6_2_8 +1 assign_full_6_2_9
  +1 assign_full_6_2_10 = +1
 full_pair_schedule_once_7: +1 assign_full_7_1_1 +1 assign_full_7_1_2 +1 assign_full_7_1_3 +1 assign_full_7_1_4
  +1 assign_full_7_1_5 +1 assign_full_7_1_6 +1 assign_full_7_1_7 +1 assign_full_7_1_8 +1 assign_full_7_1_9
  +1 assign_full_7_1_10 +1 assign_full_7_2_1 +1 assign_full_7_2_2 +1 assign_full_7_2_3 +1 assign_full_7_2_4
  +1 assign_full_7_2_5 +1 assign_full_7_2_6 +1 assign_full_7_2_7 +1 assign_full_7_2_8 +1 assign_full_7_2_9
  +1 assign_full_7_2_10 = +1
 full_pair_schedule_once_8: +1 assign_full_8_1_1 +1 assign_full_8_1_2 +1 assign_full_8_1_3 +1 assign_full_8_1_4
  +1 assign_full_8_1_5 +1 assign_full_8_1_6 +1 assign_full_8_1_7 +1 assign_full_8_1_8 +1 assign_full_8_1_9
  +1 assign_full_8_1_10 +1 assign_full_8_2_1 +1 assign_full_8_2_2 +1 assign_full_8_2_3 +1 assign_full_8_2_4
  +1 assign_full_8_2_5 +1 assign_full_8_2_6 +1 assign_full_8_2_7 +1 assign_full_8_2_8 +1 assign_full_8_2_9
  +1 assign_full_8_2_10 = +1
 full_pair_schedule_once_9: +1 assign_full_9_1_1 +1 assign_full_9_1_2 +1 assign_full_9_1_3 +1 assign_full_9_1_4
  +1 assign_full_9_1_5 +1 assign_full_9_1_6 +1 assign_full_9_1_7 +1 assign_full_9_1_8 +1 assign_full_9_1_9
  +1 assign_full_9_1_10 +1 assign_full_9_2_1 +1 assign_full_9_2_2 +1 assign_full_9_2_3 +1 assign_full_9_2_4
  +1 assign_full_9_2_5 +1 assign_full_9_2_6 +1 assign_full_9_2_7 +1 assign_full_9_2_8 +1 assign_full_9_2_9
  +1 assign_full_9_2_10 = +1
 full_pair_schedule_once_10: +1 assign_full_10_1_1 +1 assign_full_10_1_2 +1 assign_full_10_1_3 +1 assign_full_10_1_4
  +1 assign_full_10_1_5 +1 assign_full_10_1_6 +1 assign_full_10_1_7 +1 assign_full_10_1_8 +1 assign_full_10_1_9
  +1 assign_full_10_1_10 +1 assign_full_10_2_1 +1 assign_full_10_2_2 +1 assign_full_10_2_3 +1 assign_full_10_2_4
  +1 assign_full_10_2_5 +1 assign_full_10_2_6 +1 assign_full_10_2_7 +1 assign_full_10_2_8 +1 assign_full_10_2_9
  +1 assign_full_10_2_10 = +1
 full_pair_schedule_once_11: +1 assign_full_11_1_1 +1 assign_full_11_1_2 +1 assign_full_11_1_3 +1 assign_full_11_1_4
  +1 assign_full_11_1_5 +1 assign_full_11_1_6 +1 assign_full_11_1_7 +1 assign_full_11_1_8 +1 assign_full_11_1_9
  +1 assign_full_11_1_10 +1 assign_full_11_2_1 +1 assign_full_11_2_2 +1 assign_full_11_2_3 +1 assign_full_11_2_4
  +1 assign_full_11_2_5 +1 assign_full_11_2_6 +1 assign_full_11_2_7 +1 assign_full_11_2_8 +1 assign_full_11_2_9
  +1 assign_full_11_2_10 = +1
 full_pair_schedule_once_12: +1 assign_full_12_1_1 +1 assign_full_12_1_2 +1 assign_full_12_1_3 +1 assign_full_12_1_4
  +1 assign_full_12_1_5 +1 assign_full_12_1_6 +1 assign_full_12_1_7 +1 assign_full_12_1_8 +1 assign_full_12_1_9
  +1 assign_full_12_1_10 +1 assign_full_12_2_1 +1 assign_full_12_2_2 +1 assign_full_12_2_3 +1 assign_full_12_2_4
  +1 assign_full_12_2_5 +1 assign_full_12_2_6 +1 assign_full_12_2_7 +1 assign_full_12_2_8 +1 assign_full_12_2_9
  +1 assign_full_12_2_10 = +1
 mix_pair_schedule_once_1: +1 assign_mix_1_1_1 +1 assign_mix_1_1_2 +1 assign_mix_1_1_3 +1 assign_mix_1_1_4
  +1 assign_mix_1_1_5 +1 assign_mix_1_1_6 +1 assign_mix_1_1_7 +1 assign_mix_1_1_8 +1 assign_mix_1_2_1
  +1 assign_mix_1_2_2 +1 assign_mix_1_2_3 +1 assign_mix_1_2_4 +1 assign_mix_1_2_5 +1 assign_mix_1_2_6
  +1 assign_mix_1_2_7 +1 assign_mix_1_2_8 = +1
 mix_pair_schedule_once_2: +1 assign_mix_2_1_1 +1 assign_mix_2_1_2 +1 assign_mix_2_1_3 +1 assign_mix_2_1_4
  +1 assign_mix_2_1_5 +1 assign_mix_2_1_6 +1 assign_mix_2_1_7 +1 assign_mix_2_1_8 +1 assign_mix_2_2_1
  +1 assign_mix_2_2_2 +1 assign_mix_2_2_3 +1 assign_mix_2_2_4 +1 assign_mix_2_2_5 +1 assign_mix_2_2_6
  +1 assign_mix_2_2_7 +1 assign_mix_2_2_8 = +1
 mix_pair_schedule_once_3: +1 assign_mix_3_1_1 +1 assign_mix_3_1_2 +1 assign_mix_3_1_3 +1 assign_mix_3_1_4
  +1 assign_mix_3_1_5 +1 assign_mix_3_1_6 +1 assign_mix_3_1_7 +1 assign_mix_3_1_8 +1 assign_mix_3_2_1
  +1 assign_mix_3_2_2 +1 assign_mix_3_2_3 +1 assign_mix_3_2_4 +1 assign_mix_3_2_5 +1 assign_mix_3_2_6
  +1 assign_mix_3_2_7 +1 assign_mix_3_2_8 = +1
 mix_pair_schedule_once_4: +1 assign_mix_4_1_1 +1 assign_mix_4_1_2 +1 assign_mix_4_1_3 +1 assign_mix_4_1_4
  +1 assign_mix_4_1_5 +1 assign_mix_4_1_6 +1 assign_mix_4_1_7 +1 assign_mix_4_1_8 +1 assign_mix_4_2_1
  +1 assign_mix_4_2_2 +1 assign_mix_4_2_3 +1 assign_mix_4_2_4 +1 assign_mix_4_2_5 +1 assign_mix_4_2_6
  +1 assign_mix_4_2_7 +1 assign_mix_4_2_8 = +1
 mix_pair_schedule_once_5: +1 assign_mix_5_1_1 +1 assign_mix_5_1_2 +1 assign_mix_5_1_3 +1 assign_mix_5_1_4
  +1 assign_mix_5_1_5 +1 assign_mix_5_1_6 +1 assign_mix_5_1_7 +1 assign_mix_5_1_8 +1 assign_mix_5_2_1
  +1 assign_mix_5_2_2 +1 assign_mix_5_2_3 +1 assign_mix_5_2_4 +1 assign_mix_5_2_5 +1 assign_mix_5_2_6
  +1 assign_mix_5_2_7 +1 assign_mix_5_2_8 = +1
 mix_pair_schedule_once_6: +1 assign_mix_6_1_1 +1 assign_mix_6_1_2 +1 assign_mix_6_1_3 +1 assign_mix_6_1_4
  +1 assign_mix_6_1_5 +1 assign_mix_6_1_6 +1 assign_mix_6_1_7 +1 assign_mix_6_1_8 +1 assign_mix_6_2_1
  +1 assign_mix_6_2_2 +1 assign_mix_6_2_3 +1 assign_mix_6_2_4 +1 assign_mix_6_2_5 +1 assign_mix_6_2_6
  +1 assign_mix_6_2_7 +1 assign_mix_6_2_8 = +1
 mix_pair_schedule_once_7: +1 assign_mix_7_1_1 +1 assign_mix_7_1_2 +1 assign_mix_7_1_3 +1 assign_mix_7_1_4
  +1 assign_mix_7_1_5 +1 assign_mix_7_1_6 +1 assign_mix_7_1_7 +1 assign_mix_7_1_8 +1 assign_mix_7_2_1
  +1 assign_mix_7_2_2 +1 assign_mix_7_2_3 +1 assign_mix_7_2_4 +1 assign_mix_7_2_5 +1 assign_mix_7_2_6
  +1 assign_mix_7_2_7 +1 assign_mix_7_2_8 = +1
 mix_pair_schedule_once_8: +1 assign_mix_8_1_1 +1 assign_mix_8_1_2 +1 assign_mix_8_1_3 +1 assign_mix_8_1_4
  +1 assign_mix_8_1_5 +1 assign_mix_8_1_6 +1 assign_mix_8_1_7 +1 assign_mix_8_1_8 +1 assign_mix_8_2_1
  +1 assign_mix_8_2_2 +1 assign_mix_8_2_3 +1 assign_mix_8_2_4 +1 assign_mix_8_2_5 +1 assign_mix_8_2_6
  +1 assign_mix_8_2_7 +1 assign_mix_8_2_8 = +1
 full_slot_capacity_1_1: +1 assign_full_1_1_1 +1 assign_full_2_1_1 +1 assign_full_3_1_1 +1 assign_full_4_1_1
  +1 assign_full_5_1_1 +1 assign_full_6_1_1 +1 assign_full_7_1_1 +1 assign_full_8_1_1 +1 assign_full_9_1_1
  +1 assign_full_10_1_1 +1 assign_full_11_1_1 +1 assign_full_12_1_1 +1 full_pec_pairs_1_1 -2 full_slot_used_1_1
  = +0
 full_slot_has_product_pair_1_1: +1 full_slot_used_1_1 -1 assign_full_1_1_1 -1 assign_full_2_1_1 -1 assign_full_3_1_1
  -1 assign_full_4_1_1 -1 assign_full_5_1_1 -1 assign_full_6_1_1 -1 assign_full_7_1_1 -1 assign_full_8_1_1
  -1 assign_full_9_1_1 -1 assign_full_10_1_1 -1 assign_full_11_1_1 -1 assign_full_12_1_1 <= +0
 full_slot_prefix_1_1: +1 full_slot_used_1_1 -1 full_slot_used_1_2 >= +0
 full_after_mix_monotone_1_1: +1 full_after_mix_1_1 -1 full_after_mix_1_2 <= +0
 full_slot_capacity_1_2: +1 assign_full_1_1_2 +1 assign_full_2_1_2 +1 assign_full_3_1_2 +1 assign_full_4_1_2
  +1 assign_full_5_1_2 +1 assign_full_6_1_2 +1 assign_full_7_1_2 +1 assign_full_8_1_2 +1 assign_full_9_1_2
  +1 assign_full_10_1_2 +1 assign_full_11_1_2 +1 assign_full_12_1_2 +1 full_pec_pairs_1_2 -2 full_slot_used_1_2
  = +0
 full_slot_has_product_pair_1_2: +1 full_slot_used_1_2 -1 assign_full_1_1_2 -1 assign_full_2_1_2 -1 assign_full_3_1_2
  -1 assign_full_4_1_2 -1 assign_full_5_1_2 -1 assign_full_6_1_2 -1 assign_full_7_1_2 -1 assign_full_8_1_2
  -1 assign_full_9_1_2 -1 assign_full_10_1_2 -1 assign_full_11_1_2 -1 assign_full_12_1_2 <= +0
 full_slot_prefix_1_2: +1 full_slot_used_1_2 -1 full_slot_used_1_3 >= +0
 full_after_mix_monotone_1_2: +1 full_after_mix_1_2 -1 full_after_mix_1_3 <= +0
 full_slot_capacity_1_3: +1 assign_full_1_1_3 +1 assign_full_2_1_3 +1 assign_full_3_1_3 +1 assign_full_4_1_3
  +1 assign_full_5_1_3 +1 assign_full_6_1_3 +1 assign_full_7_1_3 +1 assign_full_8_1_3 +1 assign_full_9_1_3
  +1 assign_full_10_1_3 +1 assign_full_11_1_3 +1 assign_full_12_1_3 +1 full_pec_pairs_1_3 -2 full_slot_used_1_3
  = +0
 full_slot_has_product_pair_1_3: +1 full_slot_used_1_3 -1 assign_full_1_1_3 -1 assign_full_2_1_3 -1 assign_full_3_1_3
  -1 assign_full_4_1_3 -1 assign_full_5_1_3 -1 assign_full_6_1_3 -1 assign_full_7_1_3 -1 assign_full_8_1_3
  -1 assign_full_9_1_3 -1 assign_full_10_1_3 -1 assign_full_11_1_3 -1 assign_full_12_1_3 <= +0
 full_slot_prefix_1_3: +1 full_slot_used_1_3 -1 full_slot_used_1_4 >= +0
 full_after_mix_monotone_1_3: +1 full_after_mix_1_3 -1 full_after_mix_1_4 <= +0
 full_slot_capacity_1_4: +1 assign_full_1_1_4 +1 assign_full_2_1_4 +1 assign_full_3_1_4 +1 assign_full_4_1_4
  +1 assign_full_5_1_4 +1 assign_full_6_1_4 +1 assign_full_7_1_4 +1 assign_full_8_1_4 +1 assign_full_9_1_4
  +1 assign_full_10_1_4 +1 assign_full_11_1_4 +1 assign_full_12_1_4 +1 full_pec_pairs_1_4 -2 full_slot_used_1_4
  = +0
 full_slot_has_product_pair_1_4: +1 full_slot_used_1_4 -1 assign_full_1_1_4 -1 assign_full_2_1_4 -1 assign_full_3_1_4
  -1 assign_full_4_1_4 -1 assign_full_5_1_4 -1 assign_full_6_1_4 -1 assign_full_7_1_4 -1 assign_full_8_1_4
  -1 assign_full_9_1_4 -1 assign_full_10_1_4 -1 assign_full_11_1_4 -1 assign_full_12_1_4 <= +0
 full_slot_prefix_1_4: +1 full_slot_used_1_4 -1 full_slot_used_1_5 >= +0
 full_after_mix_monotone_1_4: +1 full_after_mix_1_4 -1 full_after_mix_1_5 <= +0
 full_slot_capacity_1_5: +1 assign_full_1_1_5 +1 assign_full_2_1_5 +1 assign_full_3_1_5 +1 assign_full_4_1_5
  +1 assign_full_5_1_5 +1 assign_full_6_1_5 +1 assign_full_7_1_5 +1 assign_full_8_1_5 +1 assign_full_9_1_5
  +1 assign_full_10_1_5 +1 assign_full_11_1_5 +1 assign_full_12_1_5 +1 full_pec_pairs_1_5 -2 full_slot_used_1_5
  = +0
 full_slot_has_product_pair_1_5: +1 full_slot_used_1_5 -1 assign_full_1_1_5 -1 assign_full_2_1_5 -1 assign_full_3_1_5
  -1 assign_full_4_1_5 -1 assign_full_5_1_5 -1 assign_full_6_1_5 -1 assign_full_7_1_5 -1 assign_full_8_1_5
  -1 assign_full_9_1_5 -1 assign_full_10_1_5 -1 assign_full_11_1_5 -1 assign_full_12_1_5 <= +0
 full_slot_prefix_1_5: +1 full_slot_used_1_5 -1 full_slot_used_1_6 >= +0
 full_after_mix_monotone_1_5: +1 full_after_mix_1_5 -1 full_after_mix_1_6 <= +0
 full_slot_capacity_1_6: +1 assign_full_1_1_6 +1 assign_full_2_1_6 +1 assign_full_3_1_6 +1 assign_full_4_1_6
  +1 assign_full_5_1_6 +1 assign_full_6_1_6 +1 assign_full_7_1_6 +1 assign_full_8_1_6 +1 assign_full_9_1_6
  +1 assign_full_10_1_6 +1 assign_full_11_1_6 +1 assign_full_12_1_6 +1 full_pec_pairs_1_6 -2 full_slot_used_1_6
  = +0
 full_slot_has_product_pair_1_6: +1 full_slot_used_1_6 -1 assign_full_1_1_6 -1 assign_full_2_1_6 -1 assign_full_3_1_6
  -1 assign_full_4_1_6 -1 assign_full_5_1_6 -1 assign_full_6_1_6 -1 assign_full_7_1_6 -1 assign_full_8_1_6
  -1 assign_full_9_1_6 -1 assign_full_10_1_6 -1 assign_full_11_1_6 -1 assign_full_12_1_6 <= +0
 full_slot_prefix_1_6: +1 full_slot_used_1_6 -1 full_slot_used_1_7 >= +0
 full_after_mix_monotone_1_6: +1 full_after_mix_1_6 -1 full_after_mix_1_7 <= +0
 full_slot_capacity_1_7: +1 assign_full_1_1_7 +1 assign_full_2_1_7 +1 assign_full_3_1_7 +1 assign_full_4_1_7
  +1 assign_full_5_1_7 +1 assign_full_6_1_7 +1 assign_full_7_1_7 +1 assign_full_8_1_7 +1 assign_full_9_1_7
  +1 assign_full_10_1_7 +1 assign_full_11_1_7 +1 assign_full_12_1_7 +1 full_pec_pairs_1_7 -2 full_slot_used_1_7
  = +0
 full_slot_has_product_pair_1_7: +1 full_slot_used_1_7 -1 assign_full_1_1_7 -1 assign_full_2_1_7 -1 assign_full_3_1_7
  -1 assign_full_4_1_7 -1 assign_full_5_1_7 -1 assign_full_6_1_7 -1 assign_full_7_1_7 -1 assign_full_8_1_7
  -1 assign_full_9_1_7 -1 assign_full_10_1_7 -1 assign_full_11_1_7 -1 assign_full_12_1_7 <= +0
 full_slot_prefix_1_7: +1 full_slot_used_1_7 -1 full_slot_used_1_8 >= +0
 full_after_mix_monotone_1_7: +1 full_after_mix_1_7 -1 full_after_mix_1_8 <= +0
 full_slot_capacity_1_8: +1 assign_full_1_1_8 +1 assign_full_2_1_8 +1 assign_full_3_1_8 +1 assign_full_4_1_8
  +1 assign_full_5_1_8 +1 assign_full_6_1_8 +1 assign_full_7_1_8 +1 assign_full_8_1_8 +1 assign_full_9_1_8
  +1 assign_full_10_1_8 +1 assign_full_11_1_8 +1 assign_full_12_1_8 +1 full_pec_pairs_1_8 -2 full_slot_used_1_8
  = +0
 full_slot_has_product_pair_1_8: +1 full_slot_used_1_8 -1 assign_full_1_1_8 -1 assign_full_2_1_8 -1 assign_full_3_1_8
  -1 assign_full_4_1_8 -1 assign_full_5_1_8 -1 assign_full_6_1_8 -1 assign_full_7_1_8 -1 assign_full_8_1_8
  -1 assign_full_9_1_8 -1 assign_full_10_1_8 -1 assign_full_11_1_8 -1 assign_full_12_1_8 <= +0
 full_slot_prefix_1_8: +1 full_slot_used_1_8 -1 full_slot_used_1_9 >= +0
 full_after_mix_monotone_1_8: +1 full_after_mix_1_8 -1 full_after_mix_1_9 <= +0
 full_slot_capacity_1_9: +1 assign_full_1_1_9 +1 assign_full_2_1_9 +1 assign_full_3_1_9 +1 assign_full_4_1_9
  +1 assign_full_5_1_9 +1 assign_full_6_1_9 +1 assign_full_7_1_9 +1 assign_full_8_1_9 +1 assign_full_9_1_9
  +1 assign_full_10_1_9 +1 assign_full_11_1_9 +1 assign_full_12_1_9 +1 full_pec_pairs_1_9 -2 full_slot_used_1_9
  = +0
 full_slot_has_product_pair_1_9: +1 full_slot_used_1_9 -1 assign_full_1_1_9 -1 assign_full_2_1_9 -1 assign_full_3_1_9
  -1 assign_full_4_1_9 -1 assign_full_5_1_9 -1 assign_full_6_1_9 -1 assign_full_7_1_9 -1 assign_full_8_1_9
  -1 assign_full_9_1_9 -1 assign_full_10_1_9 -1 assign_full_11_1_9 -1 assign_full_12_1_9 <= +0
 full_slot_prefix_1_9: +1 full_slot_used_1_9 -1 full_slot_used_1_10 >= +0
 full_after_mix_monotone_1_9: +1 full_after_mix_1_9 -1 full_after_mix_1_10 <= +0
 full_slot_capacity_1_10: +1 assign_full_1_1_10 +1 assign_full_2_1_10 +1 assign_full_3_1_10 +1 assign_full_4_1_10
  +1 assign_full_5_1_10 +1 assign_full_6_1_10 +1 assign_full_7_1_10 +1 assign_full_8_1_10 +1 assign_full_9_1_10
  +1 assign_full_10_1_10 +1 assign_full_11_1_10 +1 assign_full_12_1_10 +1 full_pec_pairs_1_10 -2 full_slot_used_1_10
  = +0
 full_slot_has_product_pair_1_10: +1 full_slot_used_1_10 -1 assign_full_1_1_10 -1 assign_full_2_1_10 -1 assign_full_3_1_10
  -1 assign_full_4_1_10 -1 assign_full_5_1_10 -1 assign_full_6_1_10 -1 assign_full_7_1_10 -1 assign_full_8_1_10
  -1 assign_full_9_1_10 -1 assign_full_10_1_10 -1 assign_full_11_1_10 -1 assign_full_12_1_10 <= +0
 mix_pos_capacity_1_1: +1 mix_pos_used_1_1 -1 assign_mix_1_1_1 -1 assign_mix_2_1_1 -1 assign_mix_3_1_1
  -1 assign_mix_4_1_1 -1 assign_mix_5_1_1 -1 assign_mix_6_1_1 -1 assign_mix_7_1_1 -1 assign_mix_8_1_1
  = +0
 mix_pos_prefix_1_1: +1 mix_pos_used_1_1 -1 mix_pos_used_1_2 >= +0
 mix_pos_capacity_1_2: +1 mix_pos_used_1_2 -1 assign_mix_1_1_2 -1 assign_mix_2_1_2 -1 assign_mix_3_1_2
  -1 assign_mix_4_1_2 -1 assign_mix_5_1_2 -1 assign_mix_6_1_2 -1 assign_mix_7_1_2 -1 assign_mix_8_1_2
  = +0
 mix_pos_prefix_1_2: +1 mix_pos_used_1_2 -1 mix_pos_used_1_3 >= +0
 mix_pos_capacity_1_3: +1 mix_pos_used_1_3 -1 assign_mix_1_1_3 -1 assign_mix_2_1_3 -1 assign_mix_3_1_3
  -1 assign_mix_4_1_3 -1 assign_mix_5_1_3 -1 assign_mix_6_1_3 -1 assign_mix_7_1_3 -1 assign_mix_8_1_3
  = +0
 mix_pos_prefix_1_3: +1 mix_pos_used_1_3 -1 mix_pos_used_1_4 >= +0
 mix_pos_capacity_1_4: +1 mix_pos_used_1_4 -1 assign_mix_1_1_4 -1 assign_mix_2_1_4 -1 assign_mix_3_1_4
  -1 assign_mix_4_1_4 -1 assign_mix_5_1_4 -1 assign_mix_6_1_4 -1 assign_mix_7_1_4 -1 assign_mix_8_1_4
  = +0
 mix_pos_prefix_1_4: +1 mix_pos_used_1_4 -1 mix_pos_used_1_5 >= +0
 mix_pos_capacity_1_5: +1 mix_pos_used_1_5 -1 assign_mix_1_1_5 -1 assign_mix_2_1_5 -1 assign_mix_3_1_5
  -1 assign_mix_4_1_5 -1 assign_mix_5_1_5 -1 assign_mix_6_1_5 -1 assign_mix_7_1_5 -1 assign_mix_8_1_5
  = +0
 mix_pos_prefix_1_5: +1 mix_pos_used_1_5 -1 mix_pos_used_1_6 >= +0
 mix_pos_capacity_1_6: +1 mix_pos_used_1_6 -1 assign_mix_1_1_6 -1 assign_mix_2_1_6 -1 assign_mix_3_1_6
  -1 assign_mix_4_1_6 -1 assign_mix_5_1_6 -1 assign_mix_6_1_6 -1 assign_mix_7_1_6 -1 assign_mix_8_1_6
  = +0
 mix_pos_prefix_1_6: +1 mix_pos_used_1_6 -1 mix_pos_used_1_7 >= +0
 mix_pos_capacity_1_7: +1 mix_pos_used_1_7 -1 assign_mix_1_1_7 -1 assign_mix_2_1_7 -1 assign_mix_3_1_7
  -1 assign_mix_4_1_7 -1 assign_mix_5_1_7 -1 assign_mix_6_1_7 -1 assign_mix_7_1_7 -1 assign_mix_8_1_7
  = +0
 mix_pos_prefix_1_7: +1 mix_pos_used_1_7 -1 mix_pos_used_1_8 >= +0
 mix_pos_capacity_1_8: +1 mix_pos_used_1_8 -1 assign_mix_1_1_8 -1 assign_mix_2_1_8 -1 assign_mix_3_1_8
  -1 assign_mix_4_1_8 -1 assign_mix_5_1_8 -1 assign_mix_6_1_8 -1 assign_mix_7_1_8 -1 assign_mix_8_1_8
  = +0
 mix_active_def_1: +1 mix_active_1 -1 mix_pos_used_1_1 = +0
 full_slot_capacity_2_1: +1 assign_full_1_2_1 +1 assign_full_2_2_1 +1 assign_full_3_2_1 +1 assign_full_4_2_1
  +1 assign_full_5_2_1 +1 assign_full_6_2_1 +1 assign_full_7_2_1 +1 assign_full_8_2_1 +1 assign_full_9_2_1
  +1 assign_full_10_2_1 +1 assign_full_11_2_1 +1 assign_full_12_2_1 +1 full_pec_pairs_2_1 -2 full_slot_used_2_1
  = +0
 full_slot_has_product_pair_2_1: +1 full_slot_used_2_1 -1 assign_full_1_2_1 -1 assign_full_2_2_1 -1 assign_full_3_2_1
  -1 assign_full_4_2_1 -1 assign_full_5_2_1 -1 assign_full_6_2_1 -1 assign_full_7_2_1 -1 assign_full_8_2_1
  -1 assign_full_9_2_1 -1 assign_full_10_2_1 -1 assign_full_11_2_1 -1 assign_full_12_2_1 <= +0
 full_slot_prefix_2_1: +1 full_slot_used_2_1 -1 full_slot_used_2_2 >= +0
 full_after_mix_monotone_2_1: +1 full_after_mix_2_1 -1 full_after_mix_2_2 <= +0
 full_slot_capacity_2_2: +1 assign_full_1_2_2 +1 assign_full_2_2_2 +1 assign_full_3_2_2 +1 assign_full_4_2_2
  +1 assign_full_5_2_2 +1 assign_full_6_2_2 +1 assign_full_7_2_2 +1 assign_full_8_2_2 +1 assign_full_9_2_2
  +1 assign_full_10_2_2 +1 assign_full_11_2_2 +1 assign_full_12_2_2 +1 full_pec_pairs_2_2 -2 full_slot_used_2_2
  = +0
 full_slot_has_product_pair_2_2: +1 full_slot_used_2_2 -1 assign_full_1_2_2 -1 assign_full_2_2_2 -1 assign_full_3_2_2
  -1 assign_full_4_2_2 -1 assign_full_5_2_2 -1 assign_full_6_2_2 -1 assign_full_7_2_2 -1 assign_full_8_2_2
  -1 assign_full_9_2_2 -1 assign_full_10_2_2 -1 assign_full_11_2_2 -1 assign_full_12_2_2 <= +0
 full_slot_prefix_2_2: +1 full_slot_used_2_2 -1 full_slot_used_2_3 >= +0
 full_after_mix_monotone_2_2: +1 full_after_mix_2_2 -1 full_after_mix_2_3 <= +0
 full_slot_capacity_2_3: +1 assign_full_1_2_3 +1 assign_full_2_2_3 +1 assign_full_3_2_3 +1 assign_full_4_2_3
  +1 assign_full_5_2_3 +1 assign_full_6_2_3 +1 assign_full_7_2_3 +1 assign_full_8_2_3 +1 assign_full_9_2_3
  +1 assign_full_10_2_3 +1 assign_full_11_2_3 +1 assign_full_12_2_3 +1 full_pec_pairs_2_3 -2 full_slot_used_2_3
  = +0
 full_slot_has_product_pair_2_3: +1 full_slot_used_2_3 -1 assign_full_1_2_3 -1 assign_full_2_2_3 -1 assign_full_3_2_3
  -1 assign_full_4_2_3 -1 assign_full_5_2_3 -1 assign_full_6_2_3 -1 assign_full_7_2_3 -1 assign_full_8_2_3
  -1 assign_full_9_2_3 -1 assign_full_10_2_3 -1 assign_full_11_2_3 -1 assign_full_12_2_3 <= +0
 full_slot_prefix_2_3: +1 full_slot_used_2_3 -1 full_slot_used_2_4 >= +0
 full_after_mix_monotone_2_3: +1 full_after_mix_2_3 -1 full_after_mix_2_4 <= +0
 full_slot_capacity_2_4: +1 assign_full_1_2_4 +1 assign_full_2_2_4 +1 assign_full_3_2_4 +1 assign_full_4_2_4
  +1 assign_full_5_2_4 +1 assign_full_6_2_4 +1 assign_full_7_2_4 +1 assign_full_8_2_4 +1 assign_full_9_2_4
  +1 assign_full_10_2_4 +1 assign_full_11_2_4 +1 assign_full_12_2_4 +1 full_pec_pairs_2_4 -2 full_slot_used_2_4
  = +0
 full_slot_has_product_pair_2_4: +1 full_slot_used_2_4 -1 assign_full_1_2_4 -1 assign_full_2_2_4 -1 assign_full_3_2_4
  -1 assign_full_4_2_4 -1 assign_full_5_2_4 -1 assign_full_6_2_4 -1 assign_full_7_2_4 -1 assign_full_8_2_4
  -1 assign_full_9_2_4 -1 assign_full_10_2_4 -1 assign_full_11_2_4 -1 assign_full_12_2_4 <= +0
 full_slot_prefix_2_4: +1 full_slot_used_2_4 -1 full_slot_used_2_5 >= +0
 full_after_mix_monotone_2_4: +1 full_after_mix_2_4 -1 full_after_mix_2_5 <= +0
 full_slot_capacity_2_5: +1 assign_full_1_2_5 +1 assign_full_2_2_5 +1 assign_full_3_2_5 +1 assign_full_4_2_5
  +1 assign_full_5_2_5 +1 assign_full_6_2_5 +1 assign_full_7_2_5 +1 assign_full_8_2_5 +1 assign_full_9_2_5
  +1 assign_full_10_2_5 +1 assign_full_11_2_5 +1 assign_full_12_2_5 +1 full_pec_pairs_2_5 -2 full_slot_used_2_5
  = +0
 full_slot_has_product_pair_2_5: +1 full_slot_used_2_5 -1 assign_full_1_2_5 -1 assign_full_2_2_5 -1 assign_full_3_2_5
  -1 assign_full_4_2_5 -1 assign_full_5_2_5 -1 assign_full_6_2_5 -1 assign_full_7_2_5 -1 assign_full_8_2_5
  -1 assign_full_9_2_5 -1 assign_full_10_2_5 -1 assign_full_11_2_5 -1 assign_full_12_2_5 <= +0
 full_slot_prefix_2_5: +1 full_slot_used_2_5 -1 full_slot_used_2_6 >= +0
 full_after_mix_monotone_2_5: +1 full_after_mix_2_5 -1 full_after_mix_2_6 <= +0
 full_slot_capacity_2_6: +1 assign_full_1_2_6 +1 assign_full_2_2_6 +1 assign_full_3_2_6 +1 assign_full_4_2_6
  +1 assign_full_5_2_6 +1 assign_full_6_2_6 +1 assign_full_7_2_6 +1 assign_full_8_2_6 +1 assign_full_9_2_6
  +1 assign_full_10_2_6 +1 assign_full_11_2_6 +1 assign_full_12_2_6 +1 full_pec_pairs_2_6 -2 full_slot_used_2_6
  = +0
 full_slot_has_product_pair_2_6: +1 full_slot_used_2_6 -1 assign_full_1_2_6 -1 assign_full_2_2_6 -1 assign_full_3_2_6
  -1 assign_full_4_2_6 -1 assign_full_5_2_6 -1 assign_full_6_2_6 -1 assign_full_7_2_6 -1 assign_full_8_2_6
  -1 assign_full_9_2_6 -1 assign_full_10_2_6 -1 assign_full_11_2_6 -1 assign_full_12_2_6 <= +0
 full_slot_prefix_2_6: +1 full_slot_used_2_6 -1 full_slot_used_2_7 >= +0
 full_after_mix_monotone_2_6: +1 full_after_mix_2_6 -1 full_after_mix_2_7 <= +0
 full_slot_capacity_2_7: +1 assign_full_1_2_7 +1 assign_full_2_2_7 +1 assign_full_3_2_7 +1 assign_full_4_2_7
  +1 assign_full_5_2_7 +1 assign_full_6_2_7 +1 assign_full_7_2_7 +1 assign_full_8_2_7 +1 assign_full_9_2_7
  +1 assign_full_10_2_7 +1 assign_full_11_2_7 +1 assign_full_12_2_7 +1 full_pec_pairs_2_7 -2 full_slot_used_2_7
  = +0
 full_slot_has_product_pair_2_7: +1 full_slot_used_2_7 -1 assign_full_1_2_7 -1 assign_full_2_2_7 -1 assign_full_3_2_7
  -1 assign_full_4_2_7 -1 assign_full_5_2_7 -1 assign_full_6_2_7 -1 assign_full_7_2_7 -1 assign_full_8_2_7
  -1 assign_full_9_2_7 -1 assign_full_10_2_7 -1 assign_full_11_2_7 -1 assign_full_12_2_7 <= +0
 full_slot_prefix_2_7: +1 full_slot_used_2_7 -1 full_slot_used_2_8 >= +0
 full_after_mix_monotone_2_7: +1 full_after_mix_2_7 -1 full_after_mix_2_8 <= +0
 full_slot_capacity_2_8: +1 assign_full_1_2_8 +1 assign_full_2_2_8 +1 assign_full_3_2_8 +1 assign_full_4_2_8
  +1 assign_full_5_2_8 +1 assign_full_6_2_8 +1 assign_full_7_2_8 +1 assign_full_8_2_8 +1 assign_full_9_2_8
  +1 assign_full_10_2_8 +1 assign_full_11_2_8 +1 assign_full_12_2_8 +1 full_pec_pairs_2_8 -2 full_slot_used_2_8
  = +0
 full_slot_has_product_pair_2_8: +1 full_slot_used_2_8 -1 assign_full_1_2_8 -1 assign_full_2_2_8 -1 assign_full_3_2_8
  -1 assign_full_4_2_8 -1 assign_full_5_2_8 -1 assign_full_6_2_8 -1 assign_full_7_2_8 -1 assign_full_8_2_8
  -1 assign_full_9_2_8 -1 assign_full_10_2_8 -1 assign_full_11_2_8 -1 assign_full_12_2_8 <= +0
 full_slot_prefix_2_8: +1 full_slot_used_2_8 -1 full_slot_used_2_9 >= +0
 full_after_mix_monotone_2_8: +1 full_after_mix_2_8 -1 full_after_mix_2_9 <= +0
 full_slot_capacity_2_9: +1 assign_full_1_2_9 +1 assign_full_2_2_9 +1 assign_full_3_2_9 +1 assign_full_4_2_9
  +1 assign_full_5_2_9 +1 assign_full_6_2_9 +1 assign_full_7_2_9 +1 assign_full_8_2_9 +1 assign_full_9_2_9
  +1 assign_full_10_2_9 +1 assign_full_11_2_9 +1 assign_full_12_2_9 +1 full_pec_pairs_2_9 -2 full_slot_used_2_9
  = +0
 full_slot_has_product_pair_2_9: +1 full_slot_used_2_9 -1 assign_full_1_2_9 -1 assign_full_2_2_9 -1 assign_full_3_2_9
  -1 assign_full_4_2_9 -1 assign_full_5_2_9 -1 assign_full_6_2_9 -1 assign_full_7_2_9 -1 assign_full_8_2_9
  -1 assign_full_9_2_9 -1 assign_full_10_2_9 -1 assign_full_11_2_9 -1 assign_full_12_2_9 <= +0
 full_slot_prefix_2_9: +1 full_slot_used_2_9 -1 full_slot_used_2_10 >= +0
 full_after_mix_monotone_2_9: +1 full_after_mix_2_9 -1 full_after_mix_2_10 <= +0
 full_slot_capacity_2_10: +1 assign_full_1_2_10 +1 assign_full_2_2_10 +1 assign_full_3_2_10 +1 assign_full_4_2_10
  +1 assign_full_5_2_10 +1 assign_full_6_2_10 +1 assign_full_7_2_10 +1 assign_full_8_2_10 +1 assign_full_9_2_10
  +1 assign_full_10_2_10 +1 assign_full_11_2_10 +1 assign_full_12_2_10 +1 full_pec_pairs_2_10 -2 full_slot_used_2_10
  = +0
 full_slot_has_product_pair_2_10: +1 full_slot_used_2_10 -1 assign_full_1_2_10 -1 assign_full_2_2_10 -1 assign_full_3_2_10
  -1 assign_full_4_2_10 -1 assign_full_5_2_10 -1 assign_full_6_2_10 -1 assign_full_7_2_10 -1 assign_full_8_2_10
  -1 assign_full_9_2_10 -1 assign_full_10_2_10 -1 assign_full_11_2_10 -1 assign_full_12_2_10 <= +0
 mix_pos_capacity_2_1: +1 mix_pos_used_2_1 -1 assign_mix_1_2_1 -1 assign_mix_2_2_1 -1 assign_mix_3_2_1
  -1 assign_mix_4_2_1 -1 assign_mix_5_2_1 -1 assign_mix_6_2_1 -1 assign_mix_7_2_1 -1 assign_mix_8_2_1
  = +0
 mix_pos_prefix_2_1: +1 mix_pos_used_2_1 -1 mix_pos_used_2_2 >= +0
 mix_pos_capacity_2_2: +1 mix_pos_used_2_2 -1 assign_mix_1_2_2 -1 assign_mix_2_2_2 -1 assign_mix_3_2_2
  -1 assign_mix_4_2_2 -1 assign_mix_5_2_2 -1 assign_mix_6_2_2 -1 assign_mix_7_2_2 -1 assign_mix_8_2_2
  = +0
 mix_pos_prefix_2_2: +1 mix_pos_used_2_2 -1 mix_pos_used_2_3 >= +0
 mix_pos_capacity_2_3: +1 mix_pos_used_2_3 -1 assign_mix_1_2_3 -1 assign_mix_2_2_3 -1 assign_mix_3_2_3
  -1 assign_mix_4_2_3 -1 assign_mix_5_2_3 -1 assign_mix_6_2_3 -1 assign_mix_7_2_3 -1 assign_mix_8_2_3
  = +0
 mix_pos_prefix_2_3: +1 mix_pos_used_2_3 -1 mix_pos_used_2_4 >= +0
 mix_pos_capacity_2_4: +1 mix_pos_used_2_4 -1 assign_mix_1_2_4 -1 assign_mix_2_2_4 -1 assign_mix_3_2_4
  -1 assign_mix_4_2_4 -1 assign_mix_5_2_4 -1 assign_mix_6_2_4 -1 assign_mix_7_2_4 -1 assign_mix_8_2_4
  = +0
 mix_pos_prefix_2_4: +1 mix_pos_used_2_4 -1 mix_pos_used_2_5 >= +0
 mix_pos_capacity_2_5: +1 mix_pos_used_2_5 -1 assign_mix_1_2_5 -1 assign_mix_2_2_5 -1 assign_mix_3_2_5
  -1 assign_mix_4_2_5 -1 assign_mix_5_2_5 -1 assign_mix_6_2_5 -1 assign_mix_7_2_5 -1 assign_mix_8_2_5
  = +0
 mix_pos_prefix_2_5: +1 mix_pos_used_2_5 -1 mix_pos_used_2_6 >= +0
 mix_pos_capacity_2_6: +1 mix_pos_used_2_6 -1 assign_mix_1_2_6 -1 assign_mix_2_2_6 -1 assign_mix_3_2_6
  -1 assign_mix_4_2_6 -1 assign_mix_5_2_6 -1 assign_mix_6_2_6 -1 assign_mix_7_2_6 -1 assign_mix_8_2_6
  = +0
 mix_pos_prefix_2_6: +1 mix_pos_used_2_6 -1 mix_pos_used_2_7 >= +0
 mix_pos_capacity_2_7: +1 mix_pos_used_2_7 -1 assign_mix_1_2_7 -1 assign_mix_2_2_7 -1 assign_mix_3_2_7
  -1 assign_mix_4_2_7 -1 assign_mix_5_2_7 -1 assign_mix_6_2_7 -1 assign_mix_7_2_7 -1 assign_mix_8_2_7
  = +0
 mix_pos_prefix_2_7: +1 mix_pos_used_2_7 -1 mix_pos_used_2_8 >= +0
 mix_pos_capacity_2_8: +1 mix_pos_used_2_8 -1 assign_mix_1_2_8 -1 assign_mix_2_2_8 -1 assign_mix_3_2_8
  -1 assign_mix_4_2_8 -1 assign_mix_5_2_8 -1 assign_mix_6_2_8 -1 assign_mix_7_2_8 -1 assign_mix_8_2_8
  = +0
 mix_active_def_2: +1 mix_active_2 -1 mix_pos_used_2_1 = +0
 pec_wafer_budget: +2 full_pec_pairs_1_1 +2 full_pec_pairs_1_2 +2 full_pec_pairs_1_3 +2 full_pec_pairs_1_4
  +2 full_pec_pairs_1_5 +2 full_pec_pairs_1_6 +2 full_pec_pairs_1_7 +2 full_pec_pairs_1_8 +2 full_pec_pairs_1_9
  +2 full_pec_pairs_1_10 +2 full_pec_pairs_2_1 +2 full_pec_pairs_2_2 +2 full_pec_pairs_2_3 +2 full_pec_pairs_2_4
  +2 full_pec_pairs_2_5 +2 full_pec_pairs_2_6 +2 full_pec_pairs_2_7 +2 full_pec_pairs_2_8 +2 full_pec_pairs_2_9
  +2 full_pec_pairs_2_10 +4 mix_active_1 +4 mix_active_2 <= +7
 mix_cycle_lead_exists_1: +1 mix_cycle_used_1_1 -1 mix_pos_used_1_1 = +0
 mix_cycle_prev_1_2: +1 mix_cycle_used_1_2 -1 mix_pos_used_1_1 >= +0
 mix_cycle_next_1_2: +1 mix_cycle_used_1_2 -1 mix_pos_used_1_2 >= +0
 mix_cycle_union_1_2: +1 mix_cycle_used_1_2 -1 mix_pos_used_1_1 -1 mix_pos_used_1_2 <= +0
 mix_cycle_prev_1_3: +1 mix_cycle_used_1_3 -1 mix_pos_used_1_2 >= +0
 mix_cycle_next_1_3: +1 mix_cycle_used_1_3 -1 mix_pos_used_1_3 >= +0
 mix_cycle_union_1_3: +1 mix_cycle_used_1_3 -1 mix_pos_used_1_2 -1 mix_pos_used_1_3 <= +0
 mix_cycle_prev_1_4: +1 mix_cycle_used_1_4 -1 mix_pos_used_1_3 >= +0
 mix_cycle_next_1_4: +1 mix_cycle_used_1_4 -1 mix_pos_used_1_4 >= +0
 mix_cycle_union_1_4: +1 mix_cycle_used_1_4 -1 mix_pos_used_1_3 -1 mix_pos_used_1_4 <= +0
 mix_cycle_prev_1_5: +1 mix_cycle_used_1_5 -1 mix_pos_used_1_4 >= +0
 mix_cycle_next_1_5: +1 mix_cycle_used_1_5 -1 mix_pos_used_1_5 >= +0
 mix_cycle_union_1_5: +1 mix_cycle_used_1_5 -1 mix_pos_used_1_4 -1 mix_pos_used_1_5 <= +0
 mix_cycle_prev_1_6: +1 mix_cycle_used_1_6 -1 mix_pos_used_1_5 >= +0
 mix_cycle_next_1_6: +1 mix_cycle_used_1_6 -1 mix_pos_used_1_6 >= +0
 mix_cycle_union_1_6: +1 mix_cycle_used_1_6 -1 mix_pos_used_1_5 -1 mix_pos_used_1_6 <= +0
 mix_cycle_prev_1_7: +1 mix_cycle_used_1_7 -1 mix_pos_used_1_6 >= +0
 mix_cycle_next_1_7: +1 mix_cycle_used_1_7 -1 mix_pos_used_1_7 >= +0
 mix_cycle_union_1_7: +1 mix_cycle_used_1_7 -1 mix_pos_used_1_6 -1 mix_pos_used_1_7 <= +0
 mix_cycle_prev_1_8: +1 mix_cycle_used_1_8 -1 mix_pos_used_1_7 >= +0
 mix_cycle_next_1_8: +1 mix_cycle_used_1_8 -1 mix_pos_used_1_8 >= +0
 mix_cycle_union_1_8: +1 mix_cycle_used_1_8 -1 mix_pos_used_1_7 -1 mix_pos_used_1_8 <= +0
 mix_cycle_tail_exists_1: +1 mix_cycle_used_1_9 -1 mix_pos_used_1_8 = +0
 mix_cycle_prefix_1_1: +1 mix_cycle_used_1_1 -1 mix_cycle_used_1_2 >= +0
 mix_cycle_prefix_1_2: +1 mix_cycle_used_1_2 -1 mix_cycle_used_1_3 >= +0
 mix_cycle_prefix_1_3: +1 mix_cycle_used_1_3 -1 mix_cycle_used_1_4 >= +0
 mix_cycle_prefix_1_4: +1 mix_cycle_used_1_4 -1 mix_cycle_used_1_5 >= +0
 mix_cycle_prefix_1_5: +1 mix_cycle_used_1_5 -1 mix_cycle_used_1_6 >= +0
 mix_cycle_prefix_1_6: +1 mix_cycle_used_1_6 -1 mix_cycle_used_1_7 >= +0
 mix_cycle_prefix_1_7: +1 mix_cycle_used_1_7 -1 mix_cycle_used_1_8 >= +0
 mix_cycle_prefix_1_8: +1 mix_cycle_used_1_8 -1 mix_cycle_used_1_9 >= +0
 mix_last_cycle_unique_1: +1 mix_active_1 -1 mix_last_cycle_1_1 -1 mix_last_cycle_1_2 -1 mix_last_cycle_1_3
  -1 mix_last_cycle_1_4 -1 mix_last_cycle_1_5 -1 mix_last_cycle_1_6 -1 mix_last_cycle_1_7 -1 mix_last_cycle_1_8
  -1 mix_last_cycle_1_9 = +0
 mix_last_cycle_active_1_1: +1 mix_last_cycle_1_1 -1 mix_cycle_used_1_1 <= +0
 mix_last_cycle_tail_only_1_1: +1 mix_last_cycle_1_1 +1 mix_cycle_used_1_2 <= +1
 mix_last_cycle_exact_1_1: +1 mix_last_cycle_1_1 -1 mix_cycle_used_1_1 +1 mix_cycle_used_1_2 >= +0
 mix_last_cycle_active_1_2: +1 mix_last_cycle_1_2 -1 mix_cycle_used_1_2 <= +0
 mix_last_cycle_tail_only_1_2: +1 mix_last_cycle_1_2 +1 mix_cycle_used_1_3 <= +1
 mix_last_cycle_exact_1_2: +1 mix_last_cycle_1_2 -1 mix_cycle_used_1_2 +1 mix_cycle_used_1_3 >= +0
 mix_last_cycle_active_1_3: +1 mix_last_cycle_1_3 -1 mix_cycle_used_1_3 <= +0
 mix_last_cycle_tail_only_1_3: +1 mix_last_cycle_1_3 +1 mix_cycle_used_1_4 <= +1
 mix_last_cycle_exact_1_3: +1 mix_last_cycle_1_3 -1 mix_cycle_used_1_3 +1 mix_cycle_used_1_4 >= +0
 mix_last_cycle_active_1_4: +1 mix_last_cycle_1_4 -1 mix_cycle_used_1_4 <= +0
 mix_last_cycle_tail_only_1_4: +1 mix_last_cycle_1_4 +1 mix_cycle_used_1_5 <= +1
 mix_last_cycle_exact_1_4: +1 mix_last_cycle_1_4 -1 mix_cycle_used_1_4 +1 mix_cycle_used_1_5 >= +0
 mix_last_cycle_active_1_5: +1 mix_last_cycle_1_5 -1 mix_cycle_used_1_5 <= +0
 mix_last_cycle_tail_only_1_5: +1 mix_last_cycle_1_5 +1 mix_cycle_used_1_6 <= +1
 mix_last_cycle_exact_1_5: +1 mix_last_cycle_1_5 -1 mix_cycle_used_1_5 +1 mix_cycle_used_1_6 >= +0
 mix_last_cycle_active_1_6: +1 mix_last_cycle_1_6 -1 mix_cycle_used_1_6 <= +0
 mix_last_cycle_tail_only_1_6: +1 mix_last_cycle_1_6 +1 mix_cycle_used_1_7 <= +1
 mix_last_cycle_exact_1_6: +1 mix_last_cycle_1_6 -1 mix_cycle_used_1_6 +1 mix_cycle_used_1_7 >= +0
 mix_last_cycle_active_1_7: +1 mix_last_cycle_1_7 -1 mix_cycle_used_1_7 <= +0
 mix_last_cycle_tail_only_1_7: +1 mix_last_cycle_1_7 +1 mix_cycle_used_1_8 <= +1
 mix_last_cycle_exact_1_7: +1 mix_last_cycle_1_7 -1 mix_cycle_used_1_7 +1 mix_cycle_used_1_8 >= +0
 mix_last_cycle_active_1_8: +1 mix_last_cycle_1_8 -1 mix_cycle_used_1_8 <= +0
 mix_last_cycle_tail_only_1_8: +1 mix_last_cycle_1_8 +1 mix_cycle_used_1_9 <= +1
 mix_last_cycle_exact_1_8: +1 mix_last_cycle_1_8 -1 mix_cycle_used_1_8 +1 mix_cycle_used_1_9 >= +0
 mix_last_cycle_terminal_1: +1 mix_last_cycle_1_9 -1 mix_cycle_used_1_9 = +0
 mix_cycle_lead_exists_2: +1 mix_cycle_used_2_1 -1 mix_pos_used_2_1 = +0
 mix_cycle_prev_2_2: +1 mix_cycle_used_2_2 -1 mix_pos_used_2_1 >= +0
 mix_cycle_next_2_2: +1 mix_cycle_used_2_2 -1 mix_pos_used_2_2 >= +0
 mix_cycle_union_2_2: +1 mix_cycle_used_2_2 -1 mix_pos_used_2_1 -1 mix_pos_used_2_2 <= +0
 mix_cycle_prev_2_3: +1 mix_cycle_used_2_3 -1 mix_pos_used_2_2 >= +0
 mix_cycle_next_2_3: +1 mix_cycle_used_2_3 -1 mix_pos_used_2_3 >= +0
 mix_cycle_union_2_3: +1 mix_cycle_used_2_3 -1 mix_pos_used_2_2 -1 mix_pos_used_2_3 <= +0
 mix_cycle_prev_2_4: +1 mix_cycle_used_2_4 -1 mix_pos_used_2_3 >= +0
 mix_cycle_next_2_4: +1 mix_cycle_used_2_4 -1 mix_pos_used_2_4 >= +0
 mix_cycle_union_2_4: +1 mix_cycle_used_2_4 -1 mix_pos_used_2_3 -1 mix_pos_used_2_4 <= +0
 mix_cycle_prev_2_5: +1 mix_cycle_used_2_5 -1 mix_pos_used_2_4 >= +0
 mix_cycle_next_2_5: +1 mix_cycle_used_2_5 -1 mix_pos_used_2_5 >= +0
 mix_cycle_union_2_5: +1 mix_cycle_used_2_5 -1 mix_pos_used_2_4 -1 mix_pos_used_2_5 <= +0
 mix_cycle_prev_2_6: +1 mix_cycle_used_2_6 -1 mix_pos_used_2_5 >= +0
 mix_cycle_next_2_6: +1 mix_cycle_used_2_6 -1 mix_pos_used_2_6 >= +0
 mix_cycle_union_2_6: +1 mix_cycle_used_2_6 -1 mix_pos_used_2_5 -1 mix_pos_used_2_6 <= +0
 mix_cycle_prev_2_7: +1 mix_cycle_used_2_7 -1 mix_pos_used_2_6 >= +0
 mix_cycle_next_2_7: +1 mix_cycle_used_2_7 -1 mix_pos_used_2_7 >= +0
 mix_cycle_union_2_7: +1 mix_cycle_used_2_7 -1 mix_pos_used_2_6 -1 mix_pos_used_2_7 <= +0
 mix_cycle_prev_2_8: +1 mix_cycle_used_2_8 -1 mix_pos_used_2_7 >= +0
 mix_cycle_next_2_8: +1 mix_cycle_used_2_8 -1 mix_pos_used_2_8 >= +0
 mix_cycle_union_2_8: +1 mix_cycle_used_2_8 -1 mix_pos_used_2_7 -1 mix_pos_used_2_8 <= +0
 mix_cycle_tail_exists_2: +1 mix_cycle_used_2_9 -1 mix_pos_used_2_8 = +0
 mix_cycle_prefix_2_1: +1 mix_cycle_used_2_1 -1 mix_cycle_used_2_2 >= +0
 mix_cycle_prefix_2_2: +1 mix_cycle_used_2_2 -1 mix_cycle_used_2_3 >= +0
 mix_cycle_prefix_2_3: +1 mix_cycle_used_2_3 -1 mix_cycle_used_2_4 >= +0
 mix_cycle_prefix_2_4: +1 mix_cycle_used_2_4 -1 mix_cycle_used_2_5 >= +0
 mix_cycle_prefix_2_5: +1 mix_cycle_used_2_5 -1 mix_cycle_used_2_6 >= +0
 mix_cycle_prefix_2_6: +1 mix_cycle_used_2_6 -1 mix_cycle_used_2_7 >= +0
 mix_cycle_prefix_2_7: +1 mix_cycle_used_2_7 -1 mix_cycle_used_2_8 >= +0
 mix_cycle_prefix_2_8: +1 mix_cycle_used_2_8 -1 mix_cycle_used_2_9 >= +0
 mix_last_cycle_unique_2: +1 mix_active_2 -1 mix_last_cycle_2_1 -1 mix_last_cycle_2_2 -1 mix_last_cycle_2_3
  -1 mix_last_cycle_2_4 -1 mix_last_cycle_2_5 -1 mix_last_cycle_2_6 -1 mix_last_cycle_2_7 -1 mix_last_cycle_2_8
  -1 mix_last_cycle_2_9 = +0
 mix_last_cycle_active_2_1: +1 mix_last_cycle_2_1 -1 mix_cycle_used_2_1 <= +0
 mix_last_cycle_tail_only_2_1: +1 mix_last_cycle_2_1 +1 mix_cycle_used_2_2 <= +1
 mix_last_cycle_exact_2_1: +1 mix_last_cycle_2_1 -1 mix_cycle_used_2_1 +1 mix_cycle_used_2_2 >= +0
 mix_last_cycle_active_2_2: +1 mix_last_cycle_2_2 -1 mix_cycle_used_2_2 <= +0
 mix_last_cycle_tail_only_2_2: +1 mix_last_cycle_2_2 +1 mix_cycle_used_2_3 <= +1
 mix_last_cycle_exact_2_2: +1 mix_last_cycle_2_2 -1 mix_cycle_used_2_2 +1 mix_cycle_used_2_3 >= +0
 mix_last_cycle_active_2_3: +1 mix_last_cycle_2_3 -1 mix_cycle_used_2_3 <= +0
 mix_last_cycle_tail_only_2_3: +1 mix_last_cycle_2_3 +1 mix_cycle_used_2_4 <= +1
 mix_last_cycle_exact_2_3: +1 mix_last_cycle_2_3 -1 mix_cycle_used_2_3 +1 mix_cycle_used_2_4 >= +0
 mix_last_cycle_active_2_4: +1 mix_last_cycle_2_4 -1 mix_cycle_used_2_4 <= +0
 mix_last_cycle_tail_only_2_4: +1 mix_last_cycle_2_4 +1 mix_cycle_used_2_5 <= +1
 mix_last_cycle_exact_2_4: +1 mix_last_cycle_2_4 -1 mix_cycle_used_2_4 +1 mix_cycle_used_2_5 >= +0
 mix_last_cycle_active_2_5: +1 mix_last_cycle_2_5 -1 mix_cycle_used_2_5 <= +0
 mix_last_cycle_tail_only_2_5: +1 mix_last_cycle_2_5 +1 mix_cycle_used_2_6 <= +1
 mix_last_cycle_exact_2_5: +1 mix_last_cycle_2_5 -1 mix_cycle_used_2_5 +1 mix_cycle_used_2_6 >= +0
 mix_last_cycle_active_2_6: +1 mix_last_cycle_2_6 -1 mix_cycle_used_2_6 <= +0
 mix_last_cycle_tail_only_2_6: +1 mix_last_cycle_2_6 +1 mix_cycle_used_2_7 <= +1
 mix_last_cycle_exact_2_6: +1 mix_last_cycle_2_6 -1 mix_cycle_used_2_6 +1 mix_cycle_used_2_7 >= +0
 mix_last_cycle_active_2_7: +1 mix_last_cycle_2_7 -1 mix_cycle_used_2_7 <= +0
 mix_last_cycle_tail_only_2_7: +1 mix_last_cycle_2_7 +1 mix_cycle_used_2_8 <= +1
 mix_last_cycle_exact_2_7: +1 mix_last_cycle_2_7 -1 mix_cycle_used_2_7 +1 mix_cycle_used_2_8 >= +0
 mix_last_cycle_active_2_8: +1 mix_last_cycle_2_8 -1 mix_cycle_used_2_8 <= +0
 mix_last_cycle_tail_only_2_8: +1 mix_last_cycle_2_8 +1 mix_cycle_used_2_9 <= +1
 mix_last_cycle_exact_2_8: +1 mix_last_cycle_2_8 -1 mix_cycle_used_2_8 +1 mix_cycle_used_2_9 >= +0
 mix_last_cycle_terminal_2: +1 mix_last_cycle_2_9 -1 mix_cycle_used_2_9 = +0
 full_start_cap_1_1: +1 full_start_1_1 -10000 full_slot_used_1_1 <= +0
 full_end_cap_1_1: +1 full_end_1_1 -10000 full_slot_used_1_1 <= +0
 full_duration_1_1: +1 full_end_1_1 -1 full_start_1_1 -120 full_slot_used_1_1 = +0
 full_sequence_lb_1_1: +1 full_start_1_2 -1 full_end_1_1 -10000 full_slot_used_1_1 -10000 full_slot_used_1_2
  >= -19994
 full_start_cap_1_2: +1 full_start_1_2 -10000 full_slot_used_1_2 <= +0
 full_end_cap_1_2: +1 full_end_1_2 -10000 full_slot_used_1_2 <= +0
 full_duration_1_2: +1 full_end_1_2 -1 full_start_1_2 -120 full_slot_used_1_2 = +0
 full_sequence_lb_1_2: +1 full_start_1_3 -1 full_end_1_2 -10000 full_slot_used_1_2 -10000 full_slot_used_1_3
  >= -19994
 full_start_cap_1_3: +1 full_start_1_3 -10000 full_slot_used_1_3 <= +0
 full_end_cap_1_3: +1 full_end_1_3 -10000 full_slot_used_1_3 <= +0
 full_duration_1_3: +1 full_end_1_3 -1 full_start_1_3 -120 full_slot_used_1_3 = +0
 full_sequence_lb_1_3: +1 full_start_1_4 -1 full_end_1_3 -10000 full_slot_used_1_3 -10000 full_slot_used_1_4
  >= -19994
 full_start_cap_1_4: +1 full_start_1_4 -10000 full_slot_used_1_4 <= +0
 full_end_cap_1_4: +1 full_end_1_4 -10000 full_slot_used_1_4 <= +0
 full_duration_1_4: +1 full_end_1_4 -1 full_start_1_4 -120 full_slot_used_1_4 = +0
 full_sequence_lb_1_4: +1 full_start_1_5 -1 full_end_1_4 -10000 full_slot_used_1_4 -10000 full_slot_used_1_5
  >= -19994
 full_start_cap_1_5: +1 full_start_1_5 -10000 full_slot_used_1_5 <= +0
 full_end_cap_1_5: +1 full_end_1_5 -10000 full_slot_used_1_5 <= +0
 full_duration_1_5: +1 full_end_1_5 -1 full_start_1_5 -120 full_slot_used_1_5 = +0
 full_sequence_lb_1_5: +1 full_start_1_6 -1 full_end_1_5 -10000 full_slot_used_1_5 -10000 full_slot_used_1_6
  >= -19994
 full_start_cap_1_6: +1 full_start_1_6 -10000 full_slot_used_1_6 <= +0
 full_end_cap_1_6: +1 full_end_1_6 -10000 full_slot_used_1_6 <= +0
 full_duration_1_6: +1 full_end_1_6 -1 full_start_1_6 -120 full_slot_used_1_6 = +0
 full_sequence_lb_1_6: +1 full_start_1_7 -1 full_end_1_6 -10000 full_slot_used_1_6 -10000 full_slot_used_1_7
  >= -19994
 full_start_cap_1_7: +1 full_start_1_7 -10000 full_slot_used_1_7 <= +0
 full_end_cap_1_7: +1 full_end_1_7 -10000 full_slot_used_1_7 <= +0
 full_duration_1_7: +1 full_end_1_7 -1 full_start_1_7 -120 full_slot_used_1_7 = +0
 full_sequence_lb_1_7: +1 full_start_1_8 -1 full_end_1_7 -10000 full_slot_used_1_7 -10000 full_slot_used_1_8
  >= -19994
 full_start_cap_1_8: +1 full_start_1_8 -10000 full_slot_used_1_8 <= +0
 full_end_cap_1_8: +1 full_end_1_8 -10000 full_slot_used_1_8 <= +0
 full_duration_1_8: +1 full_end_1_8 -1 full_start_1_8 -120 full_slot_used_1_8 = +0
 full_sequence_lb_1_8: +1 full_start_1_9 -1 full_end_1_8 -10000 full_slot_used_1_8 -10000 full_slot_used_1_9
  >= -19994
 full_start_cap_1_9: +1 full_start_1_9 -10000 full_slot_used_1_9 <= +0
 full_end_cap_1_9: +1 full_end_1_9 -10000 full_slot_used_1_9 <= +0
 full_duration_1_9: +1 full_end_1_9 -1 full_start_1_9 -120 full_slot_used_1_9 = +0
 full_sequence_lb_1_9: +1 full_start_1_10 -1 full_end_1_9 -10000 full_slot_used_1_9 -10000 full_slot_used_1_10
  >= -19994
 full_start_cap_1_10: +1 full_start_1_10 -10000 full_slot_used_1_10 <= +0
 full_end_cap_1_10: +1 full_end_1_10 -10000 full_slot_used_1_10 <= +0
 full_duration_1_10: +1 full_end_1_10 -1 full_start_1_10 -120 full_slot_used_1_10 = +0
 mix_cycle_start_cap_1_1: +1 mix_cycle_start_1_1 -10000 mix_cycle_used_1_1 <= +0
 mix_cycle_end_cap_1_1: +1 mix_cycle_end_1_1 -10000 mix_cycle_used_1_1 <= +0
 mix_cycle_duration_1_1: +1 mix_cycle_end_1_1 -1 mix_cycle_start_1_1 -70 mix_cycle_used_1_1 = +0
 mix_cycle_sequence_lb_1_1: +1 mix_cycle_start_1_2 -1 mix_cycle_end_1_1 -10000 mix_cycle_used_1_2 >= -9994
 mix_cycle_sequence_ub_1_1: +1 mix_cycle_start_1_2 -1 mix_cycle_end_1_1 +10000 mix_cycle_used_1_1 +10000 mix_cycle_used_1_2
  <= +20006
 mix_cycle_start_cap_1_2: +1 mix_cycle_start_1_2 -10000 mix_cycle_used_1_2 <= +0
 mix_cycle_end_cap_1_2: +1 mix_cycle_end_1_2 -10000 mix_cycle_used_1_2 <= +0
 mix_cycle_duration_1_2: +1 mix_cycle_end_1_2 -1 mix_cycle_start_1_2 -70 mix_cycle_used_1_2 = +0
 mix_cycle_sequence_lb_1_2: +1 mix_cycle_start_1_3 -1 mix_cycle_end_1_2 -10000 mix_cycle_used_1_3 >= -9994
 mix_cycle_sequence_ub_1_2: +1 mix_cycle_start_1_3 -1 mix_cycle_end_1_2 +10000 mix_cycle_used_1_2 +10000 mix_cycle_used_1_3
  <= +20006
 mix_cycle_start_cap_1_3: +1 mix_cycle_start_1_3 -10000 mix_cycle_used_1_3 <= +0
 mix_cycle_end_cap_1_3: +1 mix_cycle_end_1_3 -10000 mix_cycle_used_1_3 <= +0
 mix_cycle_duration_1_3: +1 mix_cycle_end_1_3 -1 mix_cycle_start_1_3 -70 mix_cycle_used_1_3 = +0
 mix_cycle_sequence_lb_1_3: +1 mix_cycle_start_1_4 -1 mix_cycle_end_1_3 -10000 mix_cycle_used_1_4 >= -9994
 mix_cycle_sequence_ub_1_3: +1 mix_cycle_start_1_4 -1 mix_cycle_end_1_3 +10000 mix_cycle_used_1_3 +10000 mix_cycle_used_1_4
  <= +20006
 mix_cycle_start_cap_1_4: +1 mix_cycle_start_1_4 -10000 mix_cycle_used_1_4 <= +0
 mix_cycle_end_cap_1_4: +1 mix_cycle_end_1_4 -10000 mix_cycle_used_1_4 <= +0
 mix_cycle_duration_1_4: +1 mix_cycle_end_1_4 -1 mix_cycle_start_1_4 -70 mix_cycle_used_1_4 = +0
 mix_cycle_sequence_lb_1_4: +1 mix_cycle_start_1_5 -1 mix_cycle_end_1_4 -10000 mix_cycle_used_1_5 >= -9994
 mix_cycle_sequence_ub_1_4: +1 mix_cycle_start_1_5 -1 mix_cycle_end_1_4 +10000 mix_cycle_used_1_4 +10000 mix_cycle_used_1_5
  <= +20006
 mix_cycle_start_cap_1_5: +1 mix_cycle_start_1_5 -10000 mix_cycle_used_1_5 <= +0
 mix_cycle_end_cap_1_5: +1 mix_cycle_end_1_5 -10000 mix_cycle_used_1_5 <= +0
 mix_cycle_duration_1_5: +1 mix_cycle_end_1_5 -1 mix_cycle_start_1_5 -70 mix_cycle_used_1_5 = +0
 mix_cycle_sequence_lb_1_5: +1 mix_cycle_start_1_6 -1 mix_cycle_end_1_5 -10000 mix_cycle_used_1_6 >= -9994
 mix_cycle_sequence_ub_1_5: +1 mix_cycle_start_1_6 -1 mix_cycle_end_1_5 +10000 mix_cycle_used_1_5 +10000 mix_cycle_used_1_6
  <= +20006
 mix_cycle_start_cap_1_6: +1 mix_cycle_start_1_6 -10000 mix_cycle_used_1_6 <= +0
 mix_cycle_end_cap_1_6: +1 mix_cycle_end_1_6 -10000 mix_cycle_used_1_6 <= +0
 mix_cycle_duration_1_6: +1 mix_cycle_end_1_6 -1 mix_cycle_start_1_6 -70 mix_cycle_used_1_6 = +0
 mix_cycle_sequence_lb_1_6: +1 mix_cycle_start_1_7 -1 mix_cycle_end_1_6 -10000 mix_cycle_used_1_7 >= -9994
 mix_cycle_sequence_ub_1_6: +1 mix_cycle_start_1_7 -1 mix_cycle_end_1_6 +10000 mix_cycle_used_1_6 +10000 mix_cycle_used_1_7
  <= +20006
 mix_cycle_start_cap_1_7: +1 mix_cycle_start_1_7 -10000 mix_cycle_used_1_7 <= +0
 mix_cycle_end_cap_1_7: +1 mix_cycle_end_1_7 -10000 mix_cycle_used_1_7 <= +0
 mix_cycle_duration_1_7: +1 mix_cycle_end_1_7 -1 mix_cycle_start_1_7 -70 mix_cycle_used_1_7 = +0
 mix_cycle_sequence_lb_1_7: +1 mix_cycle_start_1_8 -1 mix_cycle_end_1_7 -10000 mix_cycle_used_1_8 >= -9994
 mix_cycle_sequence_ub_1_7: +1 mix_cycle_start_1_8 -1 mix_cycle_end_1_7 +10000 mix_cycle_used_1_7 +10000 mix_cycle_used_1_8
  <= +20006
 mix_cycle_start_cap_1_8: +1 mix_cycle_start_1_8 -10000 mix_cycle_used_1_8 <= +0
 mix_cycle_end_cap_1_8: +1 mix_cycle_end_1_8 -10000 mix_cycle_used_1_8 <= +0
 mix_cycle_duration_1_8: +1 mix_cycle_end_1_8 -1 mix_cycle_start_1_8 -70 mix_cycle_used_1_8 = +0
 mix_cycle_sequence_lb_1_8: +1 mix_cycle_start_1_9 -1 mix_cycle_end_1_8 -10000 mix_cycle_used_1_9 >= -9994
 mix_cycle_sequence_ub_1_8: +1 mix_cycle_start_1_9 -1 mix_cycle_end_1_8 +10000 mix_cycle_used_1_8 +10000 mix_cycle_used_1_9
  <= +20006
 mix_cycle_start_cap_1_9: +1 mix_cycle_start_1_9 -10000 mix_cycle_used_1_9 <= +0
 mix_cycle_end_cap_1_9: +1 mix_cycle_end_1_9 -10000 mix_cycle_used_1_9 <= +0
 mix_cycle_duration_1_9: +1 mix_cycle_end_1_9 -1 mix_cycle_start_1_9 -70 mix_cycle_used_1_9 = +0
 mix_block_end_cap_1: +1 mix_block_end_1 -10000 mix_active_1 <= +0
 mix_block_end_lb_1_1: +1 mix_block_end_1 -1 mix_cycle_end_1_1 -10000 mix_last_cycle_1_1 >= -10000
 mix_block_end_ub_1_1: +1 mix_block_end_1 -1 mix_cycle_end_1_1 +10000 mix_last_cycle_1_1 <= +10000
 mix_block_end_lb_1_2: +1 mix_block_end_1 -1 mix_cycle_end_1_2 -10000 mix_last_cycle_1_2 >= -10000
 mix_block_end_ub_1_2: +1 mix_block_end_1 -1 mix_cycle_end_1_2 +10000 mix_last_cycle_1_2 <= +10000
 mix_block_end_lb_1_3: +1 mix_block_end_1 -1 mix_cycle_end_1_3 -10000 mix_last_cycle_1_3 >= -10000
 mix_block_end_ub_1_3: +1 mix_block_end_1 -1 mix_cycle_end_1_3 +10000 mix_last_cycle_1_3 <= +10000
 mix_block_end_lb_1_4: +1 mix_block_end_1 -1 mix_cycle_end_1_4 -10000 mix_last_cycle_1_4 >= -10000
 mix_block_end_ub_1_4: +1 mix_block_end_1 -1 mix_cycle_end_1_4 +10000 mix_last_cycle_1_4 <= +10000
 mix_block_end_lb_1_5: +1 mix_block_end_1 -1 mix_cycle_end_1_5 -10000 mix_last_cycle_1_5 >= -10000
 mix_block_end_ub_1_5: +1 mix_block_end_1 -1 mix_cycle_end_1_5 +10000 mix_last_cycle_1_5 <= +10000
 mix_block_end_lb_1_6: +1 mix_block_end_1 -1 mix_cycle_end_1_6 -10000 mix_last_cycle_1_6 >= -10000
 mix_block_end_ub_1_6: +1 mix_block_end_1 -1 mix_cycle_end_1_6 +10000 mix_last_cycle_1_6 <= +10000
 mix_block_end_lb_1_7: +1 mix_block_end_1 -1 mix_cycle_end_1_7 -10000 mix_last_cycle_1_7 >= -10000
 mix_block_end_ub_1_7: +1 mix_block_end_1 -1 mix_cycle_end_1_7 +10000 mix_last_cycle_1_7 <= +10000
 mix_block_end_lb_1_8: +1 mix_block_end_1 -1 mix_cycle_end_1_8 -10000 mix_last_cycle_1_8 >= -10000
 mix_block_end_ub_1_8: +1 mix_block_end_1 -1 mix_cycle_end_1_8 +10000 mix_last_cycle_1_8 <= +10000
 mix_block_end_lb_1_9: +1 mix_block_end_1 -1 mix_cycle_end_1_9 -10000 mix_last_cycle_1_9 >= -10000
 mix_block_end_ub_1_9: +1 mix_block_end_1 -1 mix_cycle_end_1_9 +10000 mix_last_cycle_1_9 <= +10000
 full_before_mix_1_1: +1 full_end_1_1 -1 mix_cycle_start_1_1 -10000 full_after_mix_1_1 +10000 full_slot_used_1_1
  +10000 mix_active_1 <= +19994
 full_after_mix_1_1: +1 full_start_1_1 -1 mix_block_end_1 -10000 full_after_mix_1_1 -10000 full_slot_used_1_1
  -10000 mix_active_1 >= -29994
 full_before_mix_1_2: +1 full_end_1_2 -1 mix_cycle_start_1_1 -10000 full_after_mix_1_2 +10000 full_slot_used_1_2
  +10000 mix_active_1 <= +19994
 full_after_mix_1_2: +1 full_start_1_2 -1 mix_block_end_1 -10000 full_after_mix_1_2 -10000 full_slot_used_1_2
  -10000 mix_active_1 >= -29994
 full_before_mix_1_3: +1 full_end_1_3 -1 mix_cycle_start_1_1 -10000 full_after_mix_1_3 +10000 full_slot_used_1_3
  +10000 mix_active_1 <= +19994
 full_after_mix_1_3: +1 full_start_1_3 -1 mix_block_end_1 -10000 full_after_mix_1_3 -10000 full_slot_used_1_3
  -10000 mix_active_1 >= -29994
 full_before_mix_1_4: +1 full_end_1_4 -1 mix_cycle_start_1_1 -10000 full_after_mix_1_4 +10000 full_slot_used_1_4
  +10000 mix_active_1 <= +19994
 full_after_mix_1_4: +1 full_start_1_4 -1 mix_block_end_1 -10000 full_after_mix_1_4 -10000 full_slot_used_1_4
  -10000 mix_active_1 >= -29994
 full_before_mix_1_5: +1 full_end_1_5 -1 mix_cycle_start_1_1 -10000 full_after_mix_1_5 +10000 full_slot_used_1_5
  +10000 mix_active_1 <= +19994
 full_after_mix_1_5: +1 full_start_1_5 -1 mix_block_end_1 -10000 full_after_mix_1_5 -10000 full_slot_used_1_5
  -10000 mix_active_1 >= -29994
 full_before_mix_1_6: +1 full_end_1_6 -1 mix_cycle_start_1_1 -10000 full_after_mix_1_6 +10000 full_slot_used_1_6
  +10000 mix_active_1 <= +19994
 full_after_mix_1_6: +1 full_start_1_6 -1 mix_block_end_1 -10000 full_after_mix_1_6 -10000 full_slot_used_1_6
  -10000 mix_active_1 >= -29994
 full_before_mix_1_7: +1 full_end_1_7 -1 mix_cycle_start_1_1 -10000 full_after_mix_1_7 +10000 full_slot_used_1_7
  +10000 mix_active_1 <= +19994
 full_after_mix_1_7: +1 full_start_1_7 -1 mix_block_end_1 -10000 full_after_mix_1_7 -10000 full_slot_used_1_7
  -10000 mix_active_1 >= -29994
 full_before_mix_1_8: +1 full_end_1_8 -1 mix_cycle_start_1_1 -10000 full_after_mix_1_8 +10000 full_slot_used_1_8
  +10000 mix_active_1 <= +19994
 full_after_mix_1_8: +1 full_start_1_8 -1 mix_block_end_1 -10000 full_after_mix_1_8 -10000 full_slot_used_1_8
  -10000 mix_active_1 >= -29994
 full_before_mix_1_9: +1 full_end_1_9 -1 mix_cycle_start_1_1 -10000 full_after_mix_1_9 +10000 full_slot_used_1_9
  +10000 mix_active_1 <= +19994
 full_after_mix_1_9: +1 full_start_1_9 -1 mix_block_end_1 -10000 full_after_mix_1_9 -10000 full_slot_used_1_9
  -10000 mix_active_1 >= -29994
 full_before_mix_1_10: +1 full_end_1_10 -1 mix_cycle_start_1_1 -10000 full_after_mix_1_10 +10000 full_slot_used_1_10
  +10000 mix_active_1 <= +19994
 full_after_mix_1_10: +1 full_start_1_10 -1 mix_block_end_1 -10000 full_after_mix_1_10 -10000 full_slot_used_1_10
  -10000 mix_active_1 >= -29994
 full_start_cap_2_1: +1 full_start_2_1 -10000 full_slot_used_2_1 <= +0
 full_end_cap_2_1: +1 full_end_2_1 -10000 full_slot_used_2_1 <= +0
 full_duration_2_1: +1 full_end_2_1 -1 full_start_2_1 -120 full_slot_used_2_1 = +0
 full_sequence_lb_2_1: +1 full_start_2_2 -1 full_end_2_1 -10000 full_slot_used_2_1 -10000 full_slot_used_2_2
  >= -19994
 full_start_cap_2_2: +1 full_start_2_2 -10000 full_slot_used_2_2 <= +0
 full_end_cap_2_2: +1 full_end_2_2 -10000 full_slot_used_2_2 <= +0
 full_duration_2_2: +1 full_end_2_2 -1 full_start_2_2 -120 full_slot_used_2_2 = +0
 full_sequence_lb_2_2: +1 full_start_2_3 -1 full_end_2_2 -10000 full_slot_used_2_2 -10000 full_slot_used_2_3
  >= -19994
 full_start_cap_2_3: +1 full_start_2_3 -10000 full_slot_used_2_3 <= +0
 full_end_cap_2_3: +1 full_end_2_3 -10000 full_slot_used_2_3 <= +0
 full_duration_2_3: +1 full_end_2_3 -1 full_start_2_3 -120 full_slot_used_2_3 = +0
 full_sequence_lb_2_3: +1 full_start_2_4 -1 full_end_2_3 -10000 full_slot_used_2_3 -10000 full_slot_used_2_4
  >= -19994
 full_start_cap_2_4: +1 full_start_2_4 -10000 full_slot_used_2_4 <= +0
 full_end_cap_2_4: +1 full_end_2_4 -10000 full_slot_used_2_4 <= +0
 full_duration_2_4: +1 full_end_2_4 -1 full_start_2_4 -120 full_slot_used_2_4 = +0
 full_sequence_lb_2_4: +1 full_start_2_5 -1 full_end_2_4 -10000 full_slot_used_2_4 -10000 full_slot_used_2_5
  >= -19994
 full_start_cap_2_5: +1 full_start_2_5 -10000 full_slot_used_2_5 <= +0
 full_end_cap_2_5: +1 full_end_2_5 -10000 full_slot_used_2_5 <= +0
 full_duration_2_5: +1 full_end_2_5 -1 full_start_2_5 -120 full_slot_used_2_5 = +0
 full_sequence_lb_2_5: +1 full_start_2_6 -1 full_end_2_5 -10000 full_slot_used_2_5 -10000 full_slot_used_2_6
  >= -19994
 full_start_cap_2_6: +1 full_start_2_6 -10000 full_slot_used_2_6 <= +0
 full_end_cap_2_6: +1 full_end_2_6 -10000 full_slot_used_2_6 <= +0
 full_duration_2_6: +1 full_end_2_6 -1 full_start_2_6 -120 full_slot_used_2_6 = +0
 full_sequence_lb_2_6: +1 full_start_2_7 -1 full_end_2_6 -10000 full_slot_used_2_6 -10000 full_slot_used_2_7
  >= -19994
 full_start_cap_2_7: +1 full_start_2_7 -10000 full_slot_used_2_7 <= +0
 full_end_cap_2_7: +1 full_end_2_7 -10000 full_slot_used_2_7 <= +0
 full_duration_2_7: +1 full_end_2_7 -1 full_start_2_7 -120 full_slot_used_2_7 = +0
 full_sequence_lb_2_7: +1 full_start_2_8 -1 full_end_2_7 -10000 full_slot_used_2_7 -10000 full_slot_used_2_8
  >= -19994
 full_start_cap_2_8: +1 full_start_2_8 -10000 full_slot_used_2_8 <= +0
 full_end_cap_2_8: +1 full_end_2_8 -10000 full_slot_used_2_8 <= +0
 full_duration_2_8: +1 full_end_2_8 -1 full_start_2_8 -120 full_slot_used_2_8 = +0
 full_sequence_lb_2_8: +1 full_start_2_9 -1 full_end_2_8 -10000 full_slot_used_2_8 -10000 full_slot_used_2_9
  >= -19994
 full_start_cap_2_9: +1 full_start_2_9 -10000 full_slot_used_2_9 <= +0
 full_end_cap_2_9: +1 full_end_2_9 -10000 full_slot_used_2_9 <= +0
 full_duration_2_9: +1 full_end_2_9 -1 full_start_2_9 -120 full_slot_used_2_9 = +0
 full_sequence_lb_2_9: +1 full_start_2_10 -1 full_end_2_9 -10000 full_slot_used_2_9 -10000 full_slot_used_2_10
  >= -19994
 full_start_cap_2_10: +1 full_start_2_10 -10000 full_slot_used_2_10 <= +0
 full_end_cap_2_10: +1 full_end_2_10 -10000 full_slot_used_2_10 <= +0
 full_duration_2_10: +1 full_end_2_10 -1 full_start_2_10 -120 full_slot_used_2_10 = +0
 mix_cycle_start_cap_2_1: +1 mix_cycle_start_2_1 -10000 mix_cycle_used_2_1 <= +0
 mix_cycle_end_cap_2_1: +1 mix_cycle_end_2_1 -10000 mix_cycle_used_2_1 <= +0
 mix_cycle_duration_2_1: +1 mix_cycle_end_2_1 -1 mix_cycle_start_2_1 -70 mix_cycle_used_2_1 = +0
 mix_cycle_sequence_lb_2_1: +1 mix_cycle_start_2_2 -1 mix_cycle_end_2_1 -10000 mix_cycle_used_2_2 >= -9994
 mix_cycle_sequence_ub_2_1: +1 mix_cycle_start_2_2 -1 mix_cycle_end_2_1 +10000 mix_cycle_used_2_1 +10000 mix_cycle_used_2_2
  <= +20006
 mix_cycle_start_cap_2_2: +1 mix_cycle_start_2_2 -10000 mix_cycle_used_2_2 <= +0
 mix_cycle_end_cap_2_2: +1 mix_cycle_end_2_2 -10000 mix_cycle_used_2_2 <= +0
 mix_cycle_duration_2_2: +1 mix_cycle_end_2_2 -1 mix_cycle_start_2_2 -70 mix_cycle_used_2_2 = +0
 mix_cycle_sequence_lb_2_2: +1 mix_cycle_start_2_3 -1 mix_cycle_end_2_2 -10000 mix_cycle_used_2_3 >= -9994
 mix_cycle_sequence_ub_2_2: +1 mix_cycle_start_2_3 -1 mix_cycle_end_2_2 +10000 mix_cycle_used_2_2 +10000 mix_cycle_used_2_3
  <= +20006
 mix_cycle_start_cap_2_3: +1 mix_cycle_start_2_3 -10000 mix_cycle_used_2_3 <= +0
 mix_cycle_end_cap_2_3: +1 mix_cycle_end_2_3 -10000 mix_cycle_used_2_3 <= +0
 mix_cycle_duration_2_3: +1 mix_cycle_end_2_3 -1 mix_cycle_start_2_3 -70 mix_cycle_used_2_3 = +0
 mix_cycle_sequence_lb_2_3: +1 mix_cycle_start_2_4 -1 mix_cycle_end_2_3 -10000 mix_cycle_used_2_4 >= -9994
 mix_cycle_sequence_ub_2_3: +1 mix_cycle_start_2_4 -1 mix_cycle_end_2_3 +10000 mix_cycle_used_2_3 +10000 mix_cycle_used_2_4
  <= +20006
 mix_cycle_start_cap_2_4: +1 mix_cycle_start_2_4 -10000 mix_cycle_used_2_4 <= +0
 mix_cycle_end_cap_2_4: +1 mix_cycle_end_2_4 -10000 mix_cycle_used_2_4 <= +0
 mix_cycle_duration_2_4: +1 mix_cycle_end_2_4 -1 mix_cycle_start_2_4 -70 mix_cycle_used_2_4 = +0
 mix_cycle_sequence_lb_2_4: +1 mix_cycle_start_2_5 -1 mix_cycle_end_2_4 -10000 mix_cycle_used_2_5 >= -9994
 mix_cycle_sequence_ub_2_4: +1 mix_cycle_start_2_5 -1 mix_cycle_end_2_4 +10000 mix_cycle_used_2_4 +10000 mix_cycle_used_2_5
  <= +20006
 mix_cycle_start_cap_2_5: +1 mix_cycle_start_2_5 -10000 mix_cycle_used_2_5 <= +0
 mix_cycle_end_cap_2_5: +1 mix_cycle_end_2_5 -10000 mix_cycle_used_2_5 <= +0
 mix_cycle_duration_2_5: +1 mix_cycle_end_2_5 -1 mix_cycle_start_2_5 -70 mix_cycle_used_2_5 = +0
 mix_cycle_sequence_lb_2_5: +1 mix_cycle_start_2_6 -1 mix_cycle_end_2_5 -10000 mix_cycle_used_2_6 >= -9994
 mix_cycle_sequence_ub_2_5: +1 mix_cycle_start_2_6 -1 mix_cycle_end_2_5 +10000 mix_cycle_used_2_5 +10000 mix_cycle_used_2_6
  <= +20006
 mix_cycle_start_cap_2_6: +1 mix_cycle_start_2_6 -10000 mix_cycle_used_2_6 <= +0
 mix_cycle_end_cap_2_6: +1 mix_cycle_end_2_6 -10000 mix_cycle_used_2_6 <= +0
 mix_cycle_duration_2_6: +1 mix_cycle_end_2_6 -1 mix_cycle_start_2_6 -70 mix_cycle_used_2_6 = +0
 mix_cycle_sequence_lb_2_6: +1 mix_cycle_start_2_7 -1 mix_cycle_end_2_6 -10000 mix_cycle_used_2_7 >= -9994
 mix_cycle_sequence_ub_2_6: +1 mix_cycle_start_2_7 -1 mix_cycle_end_2_6 +10000 mix_cycle_used_2_6 +10000 mix_cycle_used_2_7
  <= +20006
 mix_cycle_start_cap_2_7: +1 mix_cycle_start_2_7 -10000 mix_cycle_used_2_7 <= +0
 mix_cycle_end_cap_2_7: +1 mix_cycle_end_2_7 -10000 mix_cycle_used_2_7 <= +0
 mix_cycle_duration_2_7: +1 mix_cycle_end_2_7 -1 mix_cycle_start_2_7 -70 mix_cycle_used_2_7 = +0
 mix_cycle_sequence_lb_2_7: +1 mix_cycle_start_2_8 -1 mix_cycle_end_2_7 -10000 mix_cycle_used_2_8 >= -9994
 mix_cycle_sequence_ub_2_7: +1 mix_cycle_start_2_8 -1 mix_cycle_end_2_7 +10000 mix_cycle_used_2_7 +10000 mix_cycle_used_2_8
  <= +20006
 mix_cycle_start_cap_2_8: +1 mix_cycle_start_2_8 -10000 mix_cycle_used_2_8 <= +0
 mix_cycle_end_cap_2_8: +1 mix_cycle_end_2_8 -10000 mix_cycle_used_2_8 <= +0
 mix_cycle_duration_2_8: +1 mix_cycle_end_2_8 -1 mix_cycle_start_2_8 -70 mix_cycle_used_2_8 = +0
 mix_cycle_sequence_lb_2_8: +1 mix_cycle_start_2_9 -1 mix_cycle_end_2_8 -10000 mix_cycle_used_2_9 >= -9994
 mix_cycle_sequence_ub_2_8: +1 mix_cycle_start_2_9 -1 mix_cycle_end_2_8 +10000 mix_cycle_used_2_8 +10000 mix_cycle_used_2_9
  <= +20006
 mix_cycle_start_cap_2_9: +1 mix_cycle_start_2_9 -10000 mix_cycle_used_2_9 <= +0
 mix_cycle_end_cap_2_9: +1 mix_cycle_end_2_9 -10000 mix_cycle_used_2_9 <= +0
 mix_cycle_duration_2_9: +1 mix_cycle_end_2_9 -1 mix_cycle_start_2_9 -70 mix_cycle_used_2_9 = +0
 mix_block_end_cap_2: +1 mix_block_end_2 -10000 mix_active_2 <= +0
 mix_block_end_lb_2_1: +1 mix_block_end_2 -1 mix_cycle_end_2_1 -10000 mix_last_cycle_2_1 >= -10000
 mix_block_end_ub_2_1: +1 mix_block_end_2 -1 mix_cycle_end_2_1 +10000 mix_last_cycle_2_1 <= +10000
 mix_block_end_lb_2_2: +1 mix_block_end_2 -1 mix_cycle_end_2_2 -10000 mix_last_cycle_2_2 >= -10000
 mix_block_end_ub_2_2: +1 mix_block_end_2 -1 mix_cycle_end_2_2 +10000 mix_last_cycle_2_2 <= +10000
 mix_block_end_lb_2_3: +1 mix_block_end_2 -1 mix_cycle_end_2_3 -10000 mix_last_cycle_2_3 >= -10000
 mix_block_end_ub_2_3: +1 mix_block_end_2 -1 mix_cycle_end_2_3 +10000 mix_last_cycle_2_3 <= +10000
 mix_block_end_lb_2_4: +1 mix_block_end_2 -1 mix_cycle_end_2_4 -10000 mix_last_cycle_2_4 >= -10000
 mix_block_end_ub_2_4: +1 mix_block_end_2 -1 mix_cycle_end_2_4 +10000 mix_last_cycle_2_4 <= +10000
 mix_block_end_lb_2_5: +1 mix_block_end_2 -1 mix_cycle_end_2_5 -10000 mix_last_cycle_2_5 >= -10000
 mix_block_end_ub_2_5: +1 mix_block_end_2 -1 mix_cycle_end_2_5 +10000 mix_last_cycle_2_5 <= +10000
 mix_block_end_lb_2_6: +1 mix_block_end_2 -1 mix_cycle_end_2_6 -10000 mix_last_cycle_2_6 >= -10000
 mix_block_end_ub_2_6: +1 mix_block_end_2 -1 mix_cycle_end_2_6 +10000 mix_last_cycle_2_6 <= +10000
 mix_block_end_lb_2_7: +1 mix_block_end_2 -1 mix_cycle_end_2_7 -10000 mix_last_cycle_2_7 >= -10000
 mix_block_end_ub_2_7: +1 mix_block_end_2 -1 mix_cycle_end_2_7 +10000 mix_last_cycle_2_7 <= +10000
 mix_block_end_lb_2_8: +1 mix_block_end_2 -1 mix_cycle_end_2_8 -10000 mix_last_cycle_2_8 >= -10000
 mix_block_end_ub_2_8: +1 mix_block_end_2 -1 mix_cycle_end_2_8 +10000 mix_last_cycle_2_8 <= +10000
 mix_block_end_lb_2_9: +1 mix_block_end_2 -1 mix_cycle_end_2_9 -10000 mix_last_cycle_2_9 >= -10000
 mix_block_end_ub_2_9: +1 mix_block_end_2 -1 mix_cycle_end_2_9 +10000 mix_last_cycle_2_9 <= +10000
 full_before_mix_2_1: +1 full_end_2_1 -1 mix_cycle_start_2_1 -10000 full_after_mix_2_1 +10000 full_slot_used_2_1
  +10000 mix_active_2 <= +19994
 full_after_mix_2_1: +1 full_start_2_1 -1 mix_block_end_2 -10000 full_after_mix_2_1 -10000 full_slot_used_2_1
  -10000 mix_active_2 >= -29994
 full_before_mix_2_2: +1 full_end_2_2 -1 mix_cycle_start_2_1 -10000 full_after_mix_2_2 +10000 full_slot_used_2_2
  +10000 mix_active_2 <= +19994
 full_after_mix_2_2: +1 full_start_2_2 -1 mix_block_end_2 -10000 full_after_mix_2_2 -10000 full_slot_used_2_2
  -10000 mix_active_2 >= -29994
 full_before_mix_2_3: +1 full_end_2_3 -1 mix_cycle_start_2_1 -10000 full_after_mix_2_3 +10000 full_slot_used_2_3
  +10000 mix_active_2 <= +19994
 full_after_mix_2_3: +1 full_start_2_3 -1 mix_block_end_2 -10000 full_after_mix_2_3 -10000 full_slot_used_2_3
  -10000 mix_active_2 >= -29994
 full_before_mix_2_4: +1 full_end_2_4 -1 mix_cycle_start_2_1 -10000 full_after_mix_2_4 +10000 full_slot_used_2_4
  +10000 mix_active_2 <= +19994
 full_after_mix_2_4: +1 full_start_2_4 -1 mix_block_end_2 -10000 full_after_mix_2_4 -10000 full_slot_used_2_4
  -10000 mix_active_2 >= -29994
 full_before_mix_2_5: +1 full_end_2_5 -1 mix_cycle_start_2_1 -10000 full_after_mix_2_5 +10000 full_slot_used_2_5
  +10000 mix_active_2 <= +19994
 full_after_mix_2_5: +1 full_start_2_5 -1 mix_block_end_2 -10000 full_after_mix_2_5 -10000 full_slot_used_2_5
  -10000 mix_active_2 >= -29994
 full_before_mix_2_6: +1 full_end_2_6 -1 mix_cycle_start_2_1 -10000 full_after_mix_2_6 +10000 full_slot_used_2_6
  +10000 mix_active_2 <= +19994
 full_after_mix_2_6: +1 full_start_2_6 -1 mix_block_end_2 -10000 full_after_mix_2_6 -10000 full_slot_used_2_6
  -10000 mix_active_2 >= -29994
 full_before_mix_2_7: +1 full_end_2_7 -1 mix_cycle_start_2_1 -10000 full_after_mix_2_7 +10000 full_slot_used_2_7
  +10000 mix_active_2 <= +19994
 full_after_mix_2_7: +1 full_start_2_7 -1 mix_block_end_2 -10000 full_after_mix_2_7 -10000 full_slot_used_2_7
  -10000 mix_active_2 >= -29994
 full_before_mix_2_8: +1 full_end_2_8 -1 mix_cycle_start_2_1 -10000 full_after_mix_2_8 +10000 full_slot_used_2_8
  +10000 mix_active_2 <= +19994
 full_after_mix_2_8: +1 full_start_2_8 -1 mix_block_end_2 -10000 full_after_mix_2_8 -10000 full_slot_used_2_8
  -10000 mix_active_2 >= -29994
 full_before_mix_2_9: +1 full_end_2_9 -1 mix_cycle_start_2_1 -10000 full_after_mix_2_9 +10000 full_slot_used_2_9
  +10000 mix_active_2 <= +19994
 full_after_mix_2_9: +1 full_start_2_9 -1 mix_block_end_2 -10000 full_after_mix_2_9 -10000 full_slot_used_2_9
  -10000 mix_active_2 >= -29994
 full_before_mix_2_10: +1 full_end_2_10 -1 mix_cycle_start_2_1 -10000 full_after_mix_2_10 +10000 full_slot_used_2_10
  +10000 mix_active_2 <= +19994
 full_after_mix_2_10: +1 full_start_2_10 -1 mix_block_end_2 -10000 full_after_mix_2_10 -10000 full_slot_used_2_10
  -10000 mix_active_2 >= -29994
 full_pair_completion_lb_1_1_1: +1 full_pair_completion_1 -1 full_end_1_1 -10000 assign_full_1_1_1 >= -10000
 full_pair_completion_ub_1_1_1: +1 full_pair_completion_1 -1 full_end_1_1 +10000 assign_full_1_1_1 <= +10000
 full_pair_completion_lb_1_1_2: +1 full_pair_completion_1 -1 full_end_1_2 -10000 assign_full_1_1_2 >= -10000
 full_pair_completion_ub_1_1_2: +1 full_pair_completion_1 -1 full_end_1_2 +10000 assign_full_1_1_2 <= +10000
 full_pair_completion_lb_1_1_3: +1 full_pair_completion_1 -1 full_end_1_3 -10000 assign_full_1_1_3 >= -10000
 full_pair_completion_ub_1_1_3: +1 full_pair_completion_1 -1 full_end_1_3 +10000 assign_full_1_1_3 <= +10000
 full_pair_completion_lb_1_1_4: +1 full_pair_completion_1 -1 full_end_1_4 -10000 assign_full_1_1_4 >= -10000
 full_pair_completion_ub_1_1_4: +1 full_pair_completion_1 -1 full_end_1_4 +10000 assign_full_1_1_4 <= +10000
 full_pair_completion_lb_1_1_5: +1 full_pair_completion_1 -1 full_end_1_5 -10000 assign_full_1_1_5 >= -10000
 full_pair_completion_ub_1_1_5: +1 full_pair_completion_1 -1 full_end_1_5 +10000 assign_full_1_1_5 <= +10000
 full_pair_completion_lb_1_1_6: +1 full_pair_completion_1 -1 full_end_1_6 -10000 assign_full_1_1_6 >= -10000
 full_pair_completion_ub_1_1_6: +1 full_pair_completion_1 -1 full_end_1_6 +10000 assign_full_1_1_6 <= +10000
 full_pair_completion_lb_1_1_7: +1 full_pair_completion_1 -1 full_end_1_7 -10000 assign_full_1_1_7 >= -10000
 full_pair_completion_ub_1_1_7: +1 full_pair_completion_1 -1 full_end_1_7 +10000 assign_full_1_1_7 <= +10000
 full_pair_completion_lb_1_1_8: +1 full_pair_completion_1 -1 full_end_1_8 -10000 assign_full_1_1_8 >= -10000
 full_pair_completion_ub_1_1_8: +1 full_pair_completion_1 -1 full_end_1_8 +10000 assign_full_1_1_8 <= +10000
 full_pair_completion_lb_1_1_9: +1 full_pair_completion_1 -1 full_end_1_9 -10000 assign_full_1_1_9 >= -10000
 full_pair_completion_ub_1_1_9: +1 full_pair_completion_1 -1 full_end_1_9 +10000 assign_full_1_1_9 <= +10000
 full_pair_completion_lb_1_1_10: +1 full_pair_completion_1 -1 full_end_1_10 -10000 assign_full_1_1_10
  >= -10000
 full_pair_completion_ub_1_1_10: +1 full_pair_completion_1 -1 full_end_1_10 +10000 assign_full_1_1_10
  <= +10000
 full_pair_completion_lb_1_2_1: +1 full_pair_completion_1 -1 full_end_2_1 -10000 assign_full_1_2_1 >= -10000
 full_pair_completion_ub_1_2_1: +1 full_pair_completion_1 -1 full_end_2_1 +10000 assign_full_1_2_1 <= +10000
 full_pair_completion_lb_1_2_2: +1 full_pair_completion_1 -1 full_end_2_2 -10000 assign_full_1_2_2 >= -10000
 full_pair_completion_ub_1_2_2: +1 full_pair_completion_1 -1 full_end_2_2 +10000 assign_full_1_2_2 <= +10000
 full_pair_completion_lb_1_2_3: +1 full_pair_completion_1 -1 full_end_2_3 -10000 assign_full_1_2_3 >= -10000
 full_pair_completion_ub_1_2_3: +1 full_pair_completion_1 -1 full_end_2_3 +10000 assign_full_1_2_3 <= +10000
 full_pair_completion_lb_1_2_4: +1 full_pair_completion_1 -1 full_end_2_4 -10000 assign_full_1_2_4 >= -10000
 full_pair_completion_ub_1_2_4: +1 full_pair_completion_1 -1 full_end_2_4 +10000 assign_full_1_2_4 <= +10000
 full_pair_completion_lb_1_2_5: +1 full_pair_completion_1 -1 full_end_2_5 -10000 assign_full_1_2_5 >= -10000
 full_pair_completion_ub_1_2_5: +1 full_pair_completion_1 -1 full_end_2_5 +10000 assign_full_1_2_5 <= +10000
 full_pair_completion_lb_1_2_6: +1 full_pair_completion_1 -1 full_end_2_6 -10000 assign_full_1_2_6 >= -10000
 full_pair_completion_ub_1_2_6: +1 full_pair_completion_1 -1 full_end_2_6 +10000 assign_full_1_2_6 <= +10000
 full_pair_completion_lb_1_2_7: +1 full_pair_completion_1 -1 full_end_2_7 -10000 assign_full_1_2_7 >= -10000
 full_pair_completion_ub_1_2_7: +1 full_pair_completion_1 -1 full_end_2_7 +10000 assign_full_1_2_7 <= +10000
 full_pair_completion_lb_1_2_8: +1 full_pair_completion_1 -1 full_end_2_8 -10000 assign_full_1_2_8 >= -10000
 full_pair_completion_ub_1_2_8: +1 full_pair_completion_1 -1 full_end_2_8 +10000 assign_full_1_2_8 <= +10000
 full_pair_completion_lb_1_2_9: +1 full_pair_completion_1 -1 full_end_2_9 -10000 assign_full_1_2_9 >= -10000
 full_pair_completion_ub_1_2_9: +1 full_pair_completion_1 -1 full_end_2_9 +10000 assign_full_1_2_9 <= +10000
 full_pair_completion_lb_1_2_10: +1 full_pair_completion_1 -1 full_end_2_10 -10000 assign_full_1_2_10
  >= -10000
 full_pair_completion_ub_1_2_10: +1 full_pair_completion_1 -1 full_end_2_10 +10000 assign_full_1_2_10
  <= +10000
 full_pair_completion_lb_2_1_1: +1 full_pair_completion_2 -1 full_end_1_1 -10000 assign_full_2_1_1 >= -10000
 full_pair_completion_ub_2_1_1: +1 full_pair_completion_2 -1 full_end_1_1 +10000 assign_full_2_1_1 <= +10000
 full_pair_completion_lb_2_1_2: +1 full_pair_completion_2 -1 full_end_1_2 -10000 assign_full_2_1_2 >= -10000
 full_pair_completion_ub_2_1_2: +1 full_pair_completion_2 -1 full_end_1_2 +10000 assign_full_2_1_2 <= +10000
 full_pair_completion_lb_2_1_3: +1 full_pair_completion_2 -1 full_end_1_3 -10000 assign_full_2_1_3 >= -10000
 full_pair_completion_ub_2_1_3: +1 full_pair_completion_2 -1 full_end_1_3 +10000 assign_full_2_1_3 <= +10000
 full_pair_completion_lb_2_1_4: +1 full_pair_completion_2 -1 full_end_1_4 -10000 assign_full_2_1_4 >= -10000
 full_pair_completion_ub_2_1_4: +1 full_pair_completion_2 -1 full_end_1_4 +10000 assign_full_2_1_4 <= +10000
 full_pair_completion_lb_2_1_5: +1 full_pair_completion_2 -1 full_end_1_5 -10000 assign_full_2_1_5 >= -10000
 full_pair_completion_ub_2_1_5: +1 full_pair_completion_2 -1 full_end_1_5 +10000 assign_full_2_1_5 <= +10000
 full_pair_completion_lb_2_1_6: +1 full_pair_completion_2 -1 full_end_1_6 -10000 assign_full_2_1_6 >= -10000
 full_pair_completion_ub_2_1_6: +1 full_pair_completion_2 -1 full_end_1_6 +10000 assign_full_2_1_6 <= +10000
 full_pair_completion_lb_2_1_7: +1 full_pair_completion_2 -1 full_end_1_7 -10000 assign_full_2_1_7 >= -10000
 full_pair_completion_ub_2_1_7: +1 full_pair_completion_2 -1 full_end_1_7 +10000 assign_full_2_1_7 <= +10000
 full_pair_completion_lb_2_1_8: +1 full_pair_completion_2 -1 full_end_1_8 -10000 assign_full_2_1_8 >= -10000
 full_pair_completion_ub_2_1_8: +1 full_pair_completion_2 -1 full_end_1_8 +10000 assign_full_2_1_8 <= +10000
 full_pair_completion_lb_2_1_9: +1 full_pair_completion_2 -1 full_end_1_9 -10000 assign_full_2_1_9 >= -10000
 full_pair_completion_ub_2_1_9: +1 full_pair_completion_2 -1 full_end_1_9 +10000 assign_full_2_1_9 <= +10000
 full_pair_completion_lb_2_1_10: +1 full_pair_completion_2 -1 full_end_1_10 -10000 assign_full_2_1_10
  >= -10000
 full_pair_completion_ub_2_1_10: +1 full_pair_completion_2 -1 full_end_1_10 +10000 assign_full_2_1_10
  <= +10000
 full_pair_completion_lb_2_2_1: +1 full_pair_completion_2 -1 full_end_2_1 -10000 assign_full_2_2_1 >= -10000
 full_pair_completion_ub_2_2_1: +1 full_pair_completion_2 -1 full_end_2_1 +10000 assign_full_2_2_1 <= +10000
 full_pair_completion_lb_2_2_2: +1 full_pair_completion_2 -1 full_end_2_2 -10000 assign_full_2_2_2 >= -10000
 full_pair_completion_ub_2_2_2: +1 full_pair_completion_2 -1 full_end_2_2 +10000 assign_full_2_2_2 <= +10000
 full_pair_completion_lb_2_2_3: +1 full_pair_completion_2 -1 full_end_2_3 -10000 assign_full_2_2_3 >= -10000
 full_pair_completion_ub_2_2_3: +1 full_pair_completion_2 -1 full_end_2_3 +10000 assign_full_2_2_3 <= +10000
 full_pair_completion_lb_2_2_4: +1 full_pair_completion_2 -1 full_end_2_4 -10000 assign_full_2_2_4 >= -10000
 full_pair_completion_ub_2_2_4: +1 full_pair_completion_2 -1 full_end_2_4 +10000 assign_full_2_2_4 <= +10000
 full_pair_completion_lb_2_2_5: +1 full_pair_completion_2 -1 full_end_2_5 -10000 assign_full_2_2_5 >= -10000
 full_pair_completion_ub_2_2_5: +1 full_pair_completion_2 -1 full_end_2_5 +10000 assign_full_2_2_5 <= +10000
 full_pair_completion_lb_2_2_6: +1 full_pair_completion_2 -1 full_end_2_6 -10000 assign_full_2_2_6 >= -10000
 full_pair_completion_ub_2_2_6: +1 full_pair_completion_2 -1 full_end_2_6 +10000 assign_full_2_2_6 <= +10000
 full_pair_completion_lb_2_2_7: +1 full_pair_completion_2 -1 full_end_2_7 -10000 assign_full_2_2_7 >= -10000
 full_pair_completion_ub_2_2_7: +1 full_pair_completion_2 -1 full_end_2_7 +10000 assign_full_2_2_7 <= +10000
 full_pair_completion_lb_2_2_8: +1 full_pair_completion_2 -1 full_end_2_8 -10000 assign_full_2_2_8 >= -10000
 full_pair_completion_ub_2_2_8: +1 full_pair_completion_2 -1 full_end_2_8 +10000 assign_full_2_2_8 <= +10000
 full_pair_completion_lb_2_2_9: +1 full_pair_completion_2 -1 full_end_2_9 -10000 assign_full_2_2_9 >= -10000
 full_pair_completion_ub_2_2_9: +1 full_pair_completion_2 -1 full_end_2_9 +10000 assign_full_2_2_9 <= +10000
 full_pair_completion_lb_2_2_10: +1 full_pair_completion_2 -1 full_end_2_10 -10000 assign_full_2_2_10
  >= -10000
 full_pair_completion_ub_2_2_10: +1 full_pair_completion_2 -1 full_end_2_10 +10000 assign_full_2_2_10
  <= +10000
 full_pair_completion_lb_3_1_1: +1 full_pair_completion_3 -1 full_end_1_1 -10000 assign_full_3_1_1 >= -10000
 full_pair_completion_ub_3_1_1: +1 full_pair_completion_3 -1 full_end_1_1 +10000 assign_full_3_1_1 <= +10000
 full_pair_completion_lb_3_1_2: +1 full_pair_completion_3 -1 full_end_1_2 -10000 assign_full_3_1_2 >= -10000
 full_pair_completion_ub_3_1_2: +1 full_pair_completion_3 -1 full_end_1_2 +10000 assign_full_3_1_2 <= +10000
 full_pair_completion_lb_3_1_3: +1 full_pair_completion_3 -1 full_end_1_3 -10000 assign_full_3_1_3 >= -10000
 full_pair_completion_ub_3_1_3: +1 full_pair_completion_3 -1 full_end_1_3 +10000 assign_full_3_1_3 <= +10000
 full_pair_completion_lb_3_1_4: +1 full_pair_completion_3 -1 full_end_1_4 -10000 assign_full_3_1_4 >= -10000
 full_pair_completion_ub_3_1_4: +1 full_pair_completion_3 -1 full_end_1_4 +10000 assign_full_3_1_4 <= +10000
 full_pair_completion_lb_3_1_5: +1 full_pair_completion_3 -1 full_end_1_5 -10000 assign_full_3_1_5 >= -10000
 full_pair_completion_ub_3_1_5: +1 full_pair_completion_3 -1 full_end_1_5 +10000 assign_full_3_1_5 <= +10000
 full_pair_completion_lb_3_1_6: +1 full_pair_completion_3 -1 full_end_1_6 -10000 assign_full_3_1_6 >= -10000
 full_pair_completion_ub_3_1_6: +1 full_pair_completion_3 -1 full_end_1_6 +10000 assign_full_3_1_6 <= +10000
 full_pair_completion_lb_3_1_7: +1 full_pair_completion_3 -1 full_end_1_7 -10000 assign_full_3_1_7 >= -10000
 full_pair_completion_ub_3_1_7: +1 full_pair_completion_3 -1 full_end_1_7 +10000 assign_full_3_1_7 <= +10000
 full_pair_completion_lb_3_1_8: +1 full_pair_completion_3 -1 full_end_1_8 -10000 assign_full_3_1_8 >= -10000
 full_pair_completion_ub_3_1_8: +1 full_pair_completion_3 -1 full_end_1_8 +10000 assign_full_3_1_8 <= +10000
 full_pair_completion_lb_3_1_9: +1 full_pair_completion_3 -1 full_end_1_9 -10000 assign_full_3_1_9 >= -10000
 full_pair_completion_ub_3_1_9: +1 full_pair_completion_3 -1 full_end_1_9 +10000 assign_full_3_1_9 <= +10000
 full_pair_completion_lb_3_1_10: +1 full_pair_completion_3 -1 full_end_1_10 -10000 assign_full_3_1_10
  >= -10000
 full_pair_completion_ub_3_1_10: +1 full_pair_completion_3 -1 full_end_1_10 +10000 assign_full_3_1_10
  <= +10000
 full_pair_completion_lb_3_2_1: +1 full_pair_completion_3 -1 full_end_2_1 -10000 assign_full_3_2_1 >= -10000
 full_pair_completion_ub_3_2_1: +1 full_pair_completion_3 -1 full_end_2_1 +10000 assign_full_3_2_1 <= +10000
 full_pair_completion_lb_3_2_2: +1 full_pair_completion_3 -1 full_end_2_2 -10000 assign_full_3_2_2 >= -10000
 full_pair_completion_ub_3_2_2: +1 full_pair_completion_3 -1 full_end_2_2 +10000 assign_full_3_2_2 <= +10000
 full_pair_completion_lb_3_2_3: +1 full_pair_completion_3 -1 full_end_2_3 -10000 assign_full_3_2_3 >= -10000
 full_pair_completion_ub_3_2_3: +1 full_pair_completion_3 -1 full_end_2_3 +10000 assign_full_3_2_3 <= +10000
 full_pair_completion_lb_3_2_4: +1 full_pair_completion_3 -1 full_end_2_4 -10000 assign_full_3_2_4 >= -10000
 full_pair_completion_ub_3_2_4: +1 full_pair_completion_3 -1 full_end_2_4 +10000 assign_full_3_2_4 <= +10000
 full_pair_completion_lb_3_2_5: +1 full_pair_completion_3 -1 full_end_2_5 -10000 assign_full_3_2_5 >= -10000
 full_pair_completion_ub_3_2_5: +1 full_pair_completion_3 -1 full_end_2_5 +10000 assign_full_3_2_5 <= +10000
 full_pair_completion_lb_3_2_6: +1 full_pair_completion_3 -1 full_end_2_6 -10000 assign_full_3_2_6 >= -10000
 full_pair_completion_ub_3_2_6: +1 full_pair_completion_3 -1 full_end_2_6 +10000 assign_full_3_2_6 <= +10000
 full_pair_completion_lb_3_2_7: +1 full_pair_completion_3 -1 full_end_2_7 -10000 assign_full_3_2_7 >= -10000
 full_pair_completion_ub_3_2_7: +1 full_pair_completion_3 -1 full_end_2_7 +10000 assign_full_3_2_7 <= +10000
 full_pair_completion_lb_3_2_8: +1 full_pair_completion_3 -1 full_end_2_8 -10000 assign_full_3_2_8 >= -10000
 full_pair_completion_ub_3_2_8: +1 full_pair_completion_3 -1 full_end_2_8 +10000 assign_full_3_2_8 <= +10000
 full_pair_completion_lb_3_2_9: +1 full_pair_completion_3 -1 full_end_2_9 -10000 assign_full_3_2_9 >= -10000
 full_pair_completion_ub_3_2_9: +1 full_pair_completion_3 -1 full_end_2_9 +10000 assign_full_3_2_9 <= +10000
 full_pair_completion_lb_3_2_10: +1 full_pair_completion_3 -1 full_end_2_10 -10000 assign_full_3_2_10
  >= -10000
 full_pair_completion_ub_3_2_10: +1 full_pair_completion_3 -1 full_end_2_10 +10000 assign_full_3_2_10
  <= +10000
 full_pair_completion_lb_4_1_1: +1 full_pair_completion_4 -1 full_end_1_1 -10000 assign_full_4_1_1 >= -10000
 full_pair_completion_ub_4_1_1: +1 full_pair_completion_4 -1 full_end_1_1 +10000 assign_full_4_1_1 <= +10000
 full_pair_completion_lb_4_1_2: +1 full_pair_completion_4 -1 full_end_1_2 -10000 assign_full_4_1_2 >= -10000
 full_pair_completion_ub_4_1_2: +1 full_pair_completion_4 -1 full_end_1_2 +10000 assign_full_4_1_2 <= +10000
 full_pair_completion_lb_4_1_3: +1 full_pair_completion_4 -1 full_end_1_3 -10000 assign_full_4_1_3 >= -10000
 full_pair_completion_ub_4_1_3: +1 full_pair_completion_4 -1 full_end_1_3 +10000 assign_full_4_1_3 <= +10000
 full_pair_completion_lb_4_1_4: +1 full_pair_completion_4 -1 full_end_1_4 -10000 assign_full_4_1_4 >= -10000
 full_pair_completion_ub_4_1_4: +1 full_pair_completion_4 -1 full_end_1_4 +10000 assign_full_4_1_4 <= +10000
 full_pair_completion_lb_4_1_5: +1 full_pair_completion_4 -1 full_end_1_5 -10000 assign_full_4_1_5 >= -10000
 full_pair_completion_ub_4_1_5: +1 full_pair_completion_4 -1 full_end_1_5 +10000 assign_full_4_1_5 <= +10000
 full_pair_completion_lb_4_1_6: +1 full_pair_completion_4 -1 full_end_1_6 -10000 assign_full_4_1_6 >= -10000
 full_pair_completion_ub_4_1_6: +1 full_pair_completion_4 -1 full_end_1_6 +10000 assign_full_4_1_6 <= +10000
 full_pair_completion_lb_4_1_7: +1 full_pair_completion_4 -1 full_end_1_7 -10000 assign_full_4_1_7 >= -10000
 full_pair_completion_ub_4_1_7: +1 full_pair_completion_4 -1 full_end_1_7 +10000 assign_full_4_1_7 <= +10000
 full_pair_completion_lb_4_1_8: +1 full_pair_completion_4 -1 full_end_1_8 -10000 assign_full_4_1_8 >= -10000
 full_pair_completion_ub_4_1_8: +1 full_pair_completion_4 -1 full_end_1_8 +10000 assign_full_4_1_8 <= +10000
 full_pair_completion_lb_4_1_9: +1 full_pair_completion_4 -1 full_end_1_9 -10000 assign_full_4_1_9 >= -10000
 full_pair_completion_ub_4_1_9: +1 full_pair_completion_4 -1 full_end_1_9 +10000 assign_full_4_1_9 <= +10000
 full_pair_completion_lb_4_1_10: +1 full_pair_completion_4 -1 full_end_1_10 -10000 assign_full_4_1_10
  >= -10000
 full_pair_completion_ub_4_1_10: +1 full_pair_completion_4 -1 full_end_1_10 +10000 assign_full_4_1_10
  <= +10000
 full_pair_completion_lb_4_2_1: +1 full_pair_completion_4 -1 full_end_2_1 -10000 assign_full_4_2_1 >= -10000
 full_pair_completion_ub_4_2_1: +1 full_pair_completion_4 -1 full_end_2_1 +10000 assign_full_4_2_1 <= +10000
 full_pair_completion_lb_4_2_2: +1 full_pair_completion_4 -1 full_end_2_2 -10000 assign_full_4_2_2 >= -10000
 full_pair_completion_ub_4_2_2: +1 full_pair_completion_4 -1 full_end_2_2 +10000 assign_full_4_2_2 <= +10000
 full_pair_completion_lb_4_2_3: +1 full_pair_completion_4 -1 full_end_2_3 -10000 assign_full_4_2_3 >= -10000
 full_pair_completion_ub_4_2_3: +1 full_pair_completion_4 -1 full_end_2_3 +10000 assign_full_4_2_3 <= +10000
 full_pair_completion_lb_4_2_4: +1 full_pair_completion_4 -1 full_end_2_4 -10000 assign_full_4_2_4 >= -10000
 full_pair_completion_ub_4_2_4: +1 full_pair_completion_4 -1 full_end_2_4 +10000 assign_full_4_2_4 <= +10000
 full_pair_completion_lb_4_2_5: +1 full_pair_completion_4 -1 full_end_2_5 -10000 assign_full_4_2_5 >= -10000
 full_pair_completion_ub_4_2_5: +1 full_pair_completion_4 -1 full_end_2_5 +10000 assign_full_4_2_5 <= +10000
 full_pair_completion_lb_4_2_6: +1 full_pair_completion_4 -1 full_end_2_6 -10000 assign_full_4_2_6 >= -10000
 full_pair_completion_ub_4_2_6: +1 full_pair_completion_4 -1 full_end_2_6 +10000 assign_full_4_2_6 <= +10000
 full_pair_completion_lb_4_2_7: +1 full_pair_completion_4 -1 full_end_2_7 -10000 assign_full_4_2_7 >= -10000
 full_pair_completion_ub_4_2_7: +1 full_pair_completion_4 -1 full_end_2_7 +10000 assign_full_4_2_7 <= +10000
 full_pair_completion_lb_4_2_8: +1 full_pair_completion_4 -1 full_end_2_8 -10000 assign_full_4_2_8 >= -10000
 full_pair_completion_ub_4_2_8: +1 full_pair_completion_4 -1 full_end_2_8 +10000 assign_full_4_2_8 <= +10000
 full_pair_completion_lb_4_2_9: +1 full_pair_completion_4 -1 full_end_2_9 -10000 assign_full_4_2_9 >= -10000
 full_pair_completion_ub_4_2_9: +1 full_pair_completion_4 -1 full_end_2_9 +10000 assign_full_4_2_9 <= +10000
 full_pair_completion_lb_4_2_10: +1 full_pair_completion_4 -1 full_end_2_10 -10000 assign_full_4_2_10
  >= -10000
 full_pair_completion_ub_4_2_10: +1 full_pair_completion_4 -1 full_end_2_10 +10000 assign_full_4_2_10
  <= +10000
 full_pair_completion_lb_5_1_1: +1 full_pair_completion_5 -1 full_end_1_1 -10000 assign_full_5_1_1 >= -10000
 full_pair_completion_ub_5_1_1: +1 full_pair_completion_5 -1 full_end_1_1 +10000 assign_full_5_1_1 <= +10000
 full_pair_completion_lb_5_1_2: +1 full_pair_completion_5 -1 full_end_1_2 -10000 assign_full_5_1_2 >= -10000
 full_pair_completion_ub_5_1_2: +1 full_pair_completion_5 -1 full_end_1_2 +10000 assign_full_5_1_2 <= +10000
 full_pair_completion_lb_5_1_3: +1 full_pair_completion_5 -1 full_end_1_3 -10000 assign_full_5_1_3 >= -10000
 full_pair_completion_ub_5_1_3: +1 full_pair_completion_5 -1 full_end_1_3 +10000 assign_full_5_1_3 <= +10000
 full_pair_completion_lb_5_1_4: +1 full_pair_completion_5 -1 full_end_1_4 -10000 assign_full_5_1_4 >= -10000
 full_pair_completion_ub_5_1_4: +1 full_pair_completion_5 -1 full_end_1_4 +10000 assign_full_5_1_4 <= +10000
 full_pair_completion_lb_5_1_5: +1 full_pair_completion_5 -1 full_end_1_5 -10000 assign_full_5_1_5 >= -10000
 full_pair_completion_ub_5_1_5: +1 full_pair_completion_5 -1 full_end_1_5 +10000 assign_full_5_1_5 <= +10000
 full_pair_completion_lb_5_1_6: +1 full_pair_completion_5 -1 full_end_1_6 -10000 assign_full_5_1_6 >= -10000
 full_pair_completion_ub_5_1_6: +1 full_pair_completion_5 -1 full_end_1_6 +10000 assign_full_5_1_6 <= +10000
 full_pair_completion_lb_5_1_7: +1 full_pair_completion_5 -1 full_end_1_7 -10000 assign_full_5_1_7 >= -10000
 full_pair_completion_ub_5_1_7: +1 full_pair_completion_5 -1 full_end_1_7 +10000 assign_full_5_1_7 <= +10000
 full_pair_completion_lb_5_1_8: +1 full_pair_completion_5 -1 full_end_1_8 -10000 assign_full_5_1_8 >= -10000
 full_pair_completion_ub_5_1_8: +1 full_pair_completion_5 -1 full_end_1_8 +10000 assign_full_5_1_8 <= +10000
 full_pair_completion_lb_5_1_9: +1 full_pair_completion_5 -1 full_end_1_9 -10000 assign_full_5_1_9 >= -10000
 full_pair_completion_ub_5_1_9: +1 full_pair_completion_5 -1 full_end_1_9 +10000 assign_full_5_1_9 <= +10000
 full_pair_completion_lb_5_1_10: +1 full_pair_completion_5 -1 full_end_1_10 -10000 assign_full_5_1_10
  >= -10000
 full_pair_completion_ub_5_1_10: +1 full_pair_completion_5 -1 full_end_1_10 +10000 assign_full_5_1_10
  <= +10000
 full_pair_completion_lb_5_2_1: +1 full_pair_completion_5 -1 full_end_2_1 -10000 assign_full_5_2_1 >= -10000
 full_pair_completion_ub_5_2_1: +1 full_pair_completion_5 -1 full_end_2_1 +10000 assign_full_5_2_1 <= +10000
 full_pair_completion_lb_5_2_2: +1 full_pair_completion_5 -1 full_end_2_2 -10000 assign_full_5_2_2 >= -10000
 full_pair_completion_ub_5_2_2: +1 full_pair_completion_5 -1 full_end_2_2 +10000 assign_full_5_2_2 <= +10000
 full_pair_completion_lb_5_2_3: +1 full_pair_completion_5 -1 full_end_2_3 -10000 assign_full_5_2_3 >= -10000
 full_pair_completion_ub_5_2_3: +1 full_pair_completion_5 -1 full_end_2_3 +10000 assign_full_5_2_3 <= +10000
 full_pair_completion_lb_5_2_4: +1 full_pair_completion_5 -1 full_end_2_4 -10000 assign_full_5_2_4 >= -10000
 full_pair_completion_ub_5_2_4: +1 full_pair_completion_5 -1 full_end_2_4 +10000 assign_full_5_2_4 <= +10000
 full_pair_completion_lb_5_2_5: +1 full_pair_completion_5 -1 full_end_2_5 -10000 assign_full_5_2_5 >= -10000
 full_pair_completion_ub_5_2_5: +1 full_pair_completion_5 -1 full_end_2_5 +10000 assign_full_5_2_5 <= +10000
 full_pair_completion_lb_5_2_6: +1 full_pair_completion_5 -1 full_end_2_6 -10000 assign_full_5_2_6 >= -10000
 full_pair_completion_ub_5_2_6: +1 full_pair_completion_5 -1 full_end_2_6 +10000 assign_full_5_2_6 <= +10000
 full_pair_completion_lb_5_2_7: +1 full_pair_completion_5 -1 full_end_2_7 -10000 assign_full_5_2_7 >= -10000
 full_pair_completion_ub_5_2_7: +1 full_pair_completion_5 -1 full_end_2_7 +10000 assign_full_5_2_7 <= +10000
 full_pair_completion_lb_5_2_8: +1 full_pair_completion_5 -1 full_end_2_8 -10000 assign_full_5_2_8 >= -10000
 full_pair_completion_ub_5_2_8: +1 full_pair_completion_5 -1 full_end_2_8 +10000 assign_full_5_2_8 <= +10000
 full_pair_completion_lb_5_2_9: +1 full_pair_completion_5 -1 full_end_2_9 -10000 assign_full_5_2_9 >= -10000
 full_pair_completion_ub_5_2_9: +1 full_pair_completion_5 -1 full_end_2_9 +10000 assign_full_5_2_9 <= +10000
 full_pair_completion_lb_5_2_10: +1 full_pair_completion_5 -1 full_end_2_10 -10000 assign_full_5_2_10
  >= -10000
 full_pair_completion_ub_5_2_10: +1 full_pair_completion_5 -1 full_end_2_10 +10000 assign_full_5_2_10
  <= +10000
 full_pair_completion_lb_6_1_1: +1 full_pair_completion_6 -1 full_end_1_1 -10000 assign_full_6_1_1 >= -10000
 full_pair_completion_ub_6_1_1: +1 full_pair_completion_6 -1 full_end_1_1 +10000 assign_full_6_1_1 <= +10000
 full_pair_completion_lb_6_1_2: +1 full_pair_completion_6 -1 full_end_1_2 -10000 assign_full_6_1_2 >= -10000
 full_pair_completion_ub_6_1_2: +1 full_pair_completion_6 -1 full_end_1_2 +10000 assign_full_6_1_2 <= +10000
 full_pair_completion_lb_6_1_3: +1 full_pair_completion_6 -1 full_end_1_3 -10000 assign_full_6_1_3 >= -10000
 full_pair_completion_ub_6_1_3: +1 full_pair_completion_6 -1 full_end_1_3 +10000 assign_full_6_1_3 <= +10000
 full_pair_completion_lb_6_1_4: +1 full_pair_completion_6 -1 full_end_1_4 -10000 assign_full_6_1_4 >= -10000
 full_pair_completion_ub_6_1_4: +1 full_pair_completion_6 -1 full_end_1_4 +10000 assign_full_6_1_4 <= +10000
 full_pair_completion_lb_6_1_5: +1 full_pair_completion_6 -1 full_end_1_5 -10000 assign_full_6_1_5 >= -10000
 full_pair_completion_ub_6_1_5: +1 full_pair_completion_6 -1 full_end_1_5 +10000 assign_full_6_1_5 <= +10000
 full_pair_completion_lb_6_1_6: +1 full_pair_completion_6 -1 full_end_1_6 -10000 assign_full_6_1_6 >= -10000
 full_pair_completion_ub_6_1_6: +1 full_pair_completion_6 -1 full_end_1_6 +10000 assign_full_6_1_6 <= +10000
 full_pair_completion_lb_6_1_7: +1 full_pair_completion_6 -1 full_end_1_7 -10000 assign_full_6_1_7 >= -10000
 full_pair_completion_ub_6_1_7: +1 full_pair_completion_6 -1 full_end_1_7 +10000 assign_full_6_1_7 <= +10000
 full_pair_completion_lb_6_1_8: +1 full_pair_completion_6 -1 full_end_1_8 -10000 assign_full_6_1_8 >= -10000
 full_pair_completion_ub_6_1_8: +1 full_pair_completion_6 -1 full_end_1_8 +10000 assign_full_6_1_8 <= +10000
 full_pair_completion_lb_6_1_9: +1 full_pair_completion_6 -1 full_end_1_9 -10000 assign_full_6_1_9 >= -10000
 full_pair_completion_ub_6_1_9: +1 full_pair_completion_6 -1 full_end_1_9 +10000 assign_full_6_1_9 <= +10000
 full_pair_completion_lb_6_1_10: +1 full_pair_completion_6 -1 full_end_1_10 -10000 assign_full_6_1_10
  >= -10000
 full_pair_completion_ub_6_1_10: +1 full_pair_completion_6 -1 full_end_1_10 +10000 assign_full_6_1_10
  <= +10000
 full_pair_completion_lb_6_2_1: +1 full_pair_completion_6 -1 full_end_2_1 -10000 assign_full_6_2_1 >= -10000
 full_pair_completion_ub_6_2_1: +1 full_pair_completion_6 -1 full_end_2_1 +10000 assign_full_6_2_1 <= +10000
 full_pair_completion_lb_6_2_2: +1 full_pair_completion_6 -1 full_end_2_2 -10000 assign_full_6_2_2 >= -10000
 full_pair_completion_ub_6_2_2: +1 full_pair_completion_6 -1 full_end_2_2 +10000 assign_full_6_2_2 <= +10000
 full_pair_completion_lb_6_2_3: +1 full_pair_completion_6 -1 full_end_2_3 -10000 assign_full_6_2_3 >= -10000
 full_pair_completion_ub_6_2_3: +1 full_pair_completion_6 -1 full_end_2_3 +10000 assign_full_6_2_3 <= +10000
 full_pair_completion_lb_6_2_4: +1 full_pair_completion_6 -1 full_end_2_4 -10000 assign_full_6_2_4 >= -10000
 full_pair_completion_ub_6_2_4: +1 full_pair_completion_6 -1 full_end_2_4 +10000 assign_full_6_2_4 <= +10000
 full_pair_completion_lb_6_2_5: +1 full_pair_completion_6 -1 full_end_2_5 -10000 assign_full_6_2_5 >= -10000
 full_pair_completion_ub_6_2_5: +1 full_pair_completion_6 -1 full_end_2_5 +10000 assign_full_6_2_5 <= +10000
 full_pair_completion_lb_6_2_6: +1 full_pair_completion_6 -1 full_end_2_6 -10000 assign_full_6_2_6 >= -10000
 full_pair_completion_ub_6_2_6: +1 full_pair_completion_6 -1 full_end_2_6 +10000 assign_full_6_2_6 <= +10000
 full_pair_completion_lb_6_2_7: +1 full_pair_completion_6 -1 full_end_2_7 -10000 assign_full_6_2_7 >= -10000
 full_pair_completion_ub_6_2_7: +1 full_pair_completion_6 -1 full_end_2_7 +10000 assign_full_6_2_7 <= +10000
 full_pair_completion_lb_6_2_8: +1 full_pair_completion_6 -1 full_end_2_8 -10000 assign_full_6_2_8 >= -10000
 full_pair_completion_ub_6_2_8: +1 full_pair_completion_6 -1 full_end_2_8 +10000 assign_full_6_2_8 <= +10000
 full_pair_completion_lb_6_2_9: +1 full_pair_completion_6 -1 full_end_2_9 -10000 assign_full_6_2_9 >= -10000
 full_pair_completion_ub_6_2_9: +1 full_pair_completion_6 -1 full_end_2_9 +10000 assign_full_6_2_9 <= +10000
 full_pair_completion_lb_6_2_10: +1 full_pair_completion_6 -1 full_end_2_10 -10000 assign_full_6_2_10
  >= -10000
 full_pair_completion_ub_6_2_10: +1 full_pair_completion_6 -1 full_end_2_10 +10000 assign_full_6_2_10
  <= +10000
 full_pair_completion_lb_7_1_1: +1 full_pair_completion_7 -1 full_end_1_1 -10000 assign_full_7_1_1 >= -10000
 full_pair_completion_ub_7_1_1: +1 full_pair_completion_7 -1 full_end_1_1 +10000 assign_full_7_1_1 <= +10000
 full_pair_completion_lb_7_1_2: +1 full_pair_completion_7 -1 full_end_1_2 -10000 assign_full_7_1_2 >= -10000
 full_pair_completion_ub_7_1_2: +1 full_pair_completion_7 -1 full_end_1_2 +10000 assign_full_7_1_2 <= +10000
 full_pair_completion_lb_7_1_3: +1 full_pair_completion_7 -1 full_end_1_3 -10000 assign_full_7_1_3 >= -10000
 full_pair_completion_ub_7_1_3: +1 full_pair_completion_7 -1 full_end_1_3 +10000 assign_full_7_1_3 <= +10000
 full_pair_completion_lb_7_1_4: +1 full_pair_completion_7 -1 full_end_1_4 -10000 assign_full_7_1_4 >= -10000
 full_pair_completion_ub_7_1_4: +1 full_pair_completion_7 -1 full_end_1_4 +10000 assign_full_7_1_4 <= +10000
 full_pair_completion_lb_7_1_5: +1 full_pair_completion_7 -1 full_end_1_5 -10000 assign_full_7_1_5 >= -10000
 full_pair_completion_ub_7_1_5: +1 full_pair_completion_7 -1 full_end_1_5 +10000 assign_full_7_1_5 <= +10000
 full_pair_completion_lb_7_1_6: +1 full_pair_completion_7 -1 full_end_1_6 -10000 assign_full_7_1_6 >= -10000
 full_pair_completion_ub_7_1_6: +1 full_pair_completion_7 -1 full_end_1_6 +10000 assign_full_7_1_6 <= +10000
 full_pair_completion_lb_7_1_7: +1 full_pair_completion_7 -1 full_end_1_7 -10000 assign_full_7_1_7 >= -10000
 full_pair_completion_ub_7_1_7: +1 full_pair_completion_7 -1 full_end_1_7 +10000 assign_full_7_1_7 <= +10000
 full_pair_completion_lb_7_1_8: +1 full_pair_completion_7 -1 full_end_1_8 -10000 assign_full_7_1_8 >= -10000
 full_pair_completion_ub_7_1_8: +1 full_pair_completion_7 -1 full_end_1_8 +10000 assign_full_7_1_8 <= +10000
 full_pair_completion_lb_7_1_9: +1 full_pair_completion_7 -1 full_end_1_9 -10000 assign_full_7_1_9 >= -10000
 full_pair_completion_ub_7_1_9: +1 full_pair_completion_7 -1 full_end_1_9 +10000 assign_full_7_1_9 <= +10000
 full_pair_completion_lb_7_1_10: +1 full_pair_completion_7 -1 full_end_1_10 -10000 assign_full_7_1_10
  >= -10000
 full_pair_completion_ub_7_1_10: +1 full_pair_completion_7 -1 full_end_1_10 +10000 assign_full_7_1_10
  <= +10000
 full_pair_completion_lb_7_2_1: +1 full_pair_completion_7 -1 full_end_2_1 -10000 assign_full_7_2_1 >= -10000
 full_pair_completion_ub_7_2_1: +1 full_pair_completion_7 -1 full_end_2_1 +10000 assign_full_7_2_1 <= +10000
 full_pair_completion_lb_7_2_2: +1 full_pair_completion_7 -1 full_end_2_2 -10000 assign_full_7_2_2 >= -10000
 full_pair_completion_ub_7_2_2: +1 full_pair_completion_7 -1 full_end_2_2 +10000 assign_full_7_2_2 <= +10000
 full_pair_completion_lb_7_2_3: +1 full_pair_completion_7 -1 full_end_2_3 -10000 assign_full_7_2_3 >= -10000
 full_pair_completion_ub_7_2_3: +1 full_pair_completion_7 -1 full_end_2_3 +10000 assign_full_7_2_3 <= +10000
 full_pair_completion_lb_7_2_4: +1 full_pair_completion_7 -1 full_end_2_4 -10000 assign_full_7_2_4 >= -10000
 full_pair_completion_ub_7_2_4: +1 full_pair_completion_7 -1 full_end_2_4 +10000 assign_full_7_2_4 <= +10000
 full_pair_completion_lb_7_2_5: +1 full_pair_completion_7 -1 full_end_2_5 -10000 assign_full_7_2_5 >= -10000
 full_pair_completion_ub_7_2_5: +1 full_pair_completion_7 -1 full_end_2_5 +10000 assign_full_7_2_5 <= +10000
 full_pair_completion_lb_7_2_6: +1 full_pair_completion_7 -1 full_end_2_6 -10000 assign_full_7_2_6 >= -10000
 full_pair_completion_ub_7_2_6: +1 full_pair_completion_7 -1 full_end_2_6 +10000 assign_full_7_2_6 <= +10000
 full_pair_completion_lb_7_2_7: +1 full_pair_completion_7 -1 full_end_2_7 -10000 assign_full_7_2_7 >= -10000
 full_pair_completion_ub_7_2_7: +1 full_pair_completion_7 -1 full_end_2_7 +10000 assign_full_7_2_7 <= +10000
 full_pair_completion_lb_7_2_8: +1 full_pair_completion_7 -1 full_end_2_8 -10000 assign_full_7_2_8 >= -10000
 full_pair_completion_ub_7_2_8: +1 full_pair_completion_7 -1 full_end_2_8 +10000 assign_full_7_2_8 <= +10000
 full_pair_completion_lb_7_2_9: +1 full_pair_completion_7 -1 full_end_2_9 -10000 assign_full_7_2_9 >= -10000
 full_pair_completion_ub_7_2_9: +1 full_pair_completion_7 -1 full_end_2_9 +10000 assign_full_7_2_9 <= +10000
 full_pair_completion_lb_7_2_10: +1 full_pair_completion_7 -1 full_end_2_10 -10000 assign_full_7_2_10
  >= -10000
 full_pair_completion_ub_7_2_10: +1 full_pair_completion_7 -1 full_end_2_10 +10000 assign_full_7_2_10
  <= +10000
 full_pair_completion_lb_8_1_1: +1 full_pair_completion_8 -1 full_end_1_1 -10000 assign_full_8_1_1 >= -10000
 full_pair_completion_ub_8_1_1: +1 full_pair_completion_8 -1 full_end_1_1 +10000 assign_full_8_1_1 <= +10000
 full_pair_completion_lb_8_1_2: +1 full_pair_completion_8 -1 full_end_1_2 -10000 assign_full_8_1_2 >= -10000
 full_pair_completion_ub_8_1_2: +1 full_pair_completion_8 -1 full_end_1_2 +10000 assign_full_8_1_2 <= +10000
 full_pair_completion_lb_8_1_3: +1 full_pair_completion_8 -1 full_end_1_3 -10000 assign_full_8_1_3 >= -10000
 full_pair_completion_ub_8_1_3: +1 full_pair_completion_8 -1 full_end_1_3 +10000 assign_full_8_1_3 <= +10000
 full_pair_completion_lb_8_1_4: +1 full_pair_completion_8 -1 full_end_1_4 -10000 assign_full_8_1_4 >= -10000
 full_pair_completion_ub_8_1_4: +1 full_pair_completion_8 -1 full_end_1_4 +10000 assign_full_8_1_4 <= +10000
 full_pair_completion_lb_8_1_5: +1 full_pair_completion_8 -1 full_end_1_5 -10000 assign_full_8_1_5 >= -10000
 full_pair_completion_ub_8_1_5: +1 full_pair_completion_8 -1 full_end_1_5 +10000 assign_full_8_1_5 <= +10000
 full_pair_completion_lb_8_1_6: +1 full_pair_completion_8 -1 full_end_1_6 -10000 assign_full_8_1_6 >= -10000
 full_pair_completion_ub_8_1_6: +1 full_pair_completion_8 -1 full_end_1_6 +10000 assign_full_8_1_6 <= +10000
 full_pair_completion_lb_8_1_7: +1 full_pair_completion_8 -1 full_end_1_7 -10000 assign_full_8_1_7 >= -10000
 full_pair_completion_ub_8_1_7: +1 full_pair_completion_8 -1 full_end_1_7 +10000 assign_full_8_1_7 <= +10000
 full_pair_completion_lb_8_1_8: +1 full_pair_completion_8 -1 full_end_1_8 -10000 assign_full_8_1_8 >= -10000
 full_pair_completion_ub_8_1_8: +1 full_pair_completion_8 -1 full_end_1_8 +10000 assign_full_8_1_8 <= +10000
 full_pair_completion_lb_8_1_9: +1 full_pair_completion_8 -1 full_end_1_9 -10000 assign_full_8_1_9 >= -10000
 full_pair_completion_ub_8_1_9: +1 full_pair_completion_8 -1 full_end_1_9 +10000 assign_full_8_1_9 <= +10000
 full_pair_completion_lb_8_1_10: +1 full_pair_completion_8 -1 full_end_1_10 -10000 assign_full_8_1_10
  >= -10000
 full_pair_completion_ub_8_1_10: +1 full_pair_completion_8 -1 full_end_1_10 +10000 assign_full_8_1_10
  <= +10000
 full_pair_completion_lb_8_2_1: +1 full_pair_completion_8 -1 full_end_2_1 -10000 assign_full_8_2_1 >= -10000
 full_pair_completion_ub_8_2_1: +1 full_pair_completion_8 -1 full_end_2_1 +10000 assign_full_8_2_1 <= +10000
 full_pair_completion_lb_8_2_2: +1 full_pair_completion_8 -1 full_end_2_2 -10000 assign_full_8_2_2 >= -10000
 full_pair_completion_ub_8_2_2: +1 full_pair_completion_8 -1 full_end_2_2 +10000 assign_full_8_2_2 <= +10000
 full_pair_completion_lb_8_2_3: +1 full_pair_completion_8 -1 full_end_2_3 -10000 assign_full_8_2_3 >= -10000
 full_pair_completion_ub_8_2_3: +1 full_pair_completion_8 -1 full_end_2_3 +10000 assign_full_8_2_3 <= +10000
 full_pair_completion_lb_8_2_4: +1 full_pair_completion_8 -1 full_end_2_4 -10000 assign_full_8_2_4 >= -10000
 full_pair_completion_ub_8_2_4: +1 full_pair_completion_8 -1 full_end_2_4 +10000 assign_full_8_2_4 <= +10000
 full_pair_completion_lb_8_2_5: +1 full_pair_completion_8 -1 full_end_2_5 -10000 assign_full_8_2_5 >= -10000
 full_pair_completion_ub_8_2_5: +1 full_pair_completion_8 -1 full_end_2_5 +10000 assign_full_8_2_5 <= +10000
 full_pair_completion_lb_8_2_6: +1 full_pair_completion_8 -1 full_end_2_6 -10000 assign_full_8_2_6 >= -10000
 full_pair_completion_ub_8_2_6: +1 full_pair_completion_8 -1 full_end_2_6 +10000 assign_full_8_2_6 <= +10000
 full_pair_completion_lb_8_2_7: +1 full_pair_completion_8 -1 full_end_2_7 -10000 assign_full_8_2_7 >= -10000
 full_pair_completion_ub_8_2_7: +1 full_pair_completion_8 -1 full_end_2_7 +10000 assign_full_8_2_7 <= +10000
 full_pair_completion_lb_8_2_8: +1 full_pair_completion_8 -1 full_end_2_8 -10000 assign_full_8_2_8 >= -10000
 full_pair_completion_ub_8_2_8: +1 full_pair_completion_8 -1 full_end_2_8 +10000 assign_full_8_2_8 <= +10000
 full_pair_completion_lb_8_2_9: +1 full_pair_completion_8 -1 full_end_2_9 -10000 assign_full_8_2_9 >= -10000
 full_pair_completion_ub_8_2_9: +1 full_pair_completion_8 -1 full_end_2_9 +10000 assign_full_8_2_9 <= +10000
 full_pair_completion_lb_8_2_10: +1 full_pair_completion_8 -1 full_end_2_10 -10000 assign_full_8_2_10
  >= -10000
 full_pair_completion_ub_8_2_10: +1 full_pair_completion_8 -1 full_end_2_10 +10000 assign_full_8_2_10
  <= +10000
 full_pair_completion_lb_9_1_1: +1 full_pair_completion_9 -1 full_end_1_1 -10000 assign_full_9_1_1 >= -10000
 full_pair_completion_ub_9_1_1: +1 full_pair_completion_9 -1 full_end_1_1 +10000 assign_full_9_1_1 <= +10000
 full_pair_completion_lb_9_1_2: +1 full_pair_completion_9 -1 full_end_1_2 -10000 assign_full_9_1_2 >= -10000
 full_pair_completion_ub_9_1_2: +1 full_pair_completion_9 -1 full_end_1_2 +10000 assign_full_9_1_2 <= +10000
 full_pair_completion_lb_9_1_3: +1 full_pair_completion_9 -1 full_end_1_3 -10000 assign_full_9_1_3 >= -10000
 full_pair_completion_ub_9_1_3: +1 full_pair_completion_9 -1 full_end_1_3 +10000 assign_full_9_1_3 <= +10000
 full_pair_completion_lb_9_1_4: +1 full_pair_completion_9 -1 full_end_1_4 -10000 assign_full_9_1_4 >= -10000
 full_pair_completion_ub_9_1_4: +1 full_pair_completion_9 -1 full_end_1_4 +10000 assign_full_9_1_4 <= +10000
 full_pair_completion_lb_9_1_5: +1 full_pair_completion_9 -1 full_end_1_5 -10000 assign_full_9_1_5 >= -10000
 full_pair_completion_ub_9_1_5: +1 full_pair_completion_9 -1 full_end_1_5 +10000 assign_full_9_1_5 <= +10000
 full_pair_completion_lb_9_1_6: +1 full_pair_completion_9 -1 full_end_1_6 -10000 assign_full_9_1_6 >= -10000
 full_pair_completion_ub_9_1_6: +1 full_pair_completion_9 -1 full_end_1_6 +10000 assign_full_9_1_6 <= +10000
 full_pair_completion_lb_9_1_7: +1 full_pair_completion_9 -1 full_end_1_7 -10000 assign_full_9_1_7 >= -10000
 full_pair_completion_ub_9_1_7: +1 full_pair_completion_9 -1 full_end_1_7 +10000 assign_full_9_1_7 <= +10000
 full_pair_completion_lb_9_1_8: +1 full_pair_completion_9 -1 full_end_1_8 -10000 assign_full_9_1_8 >= -10000
 full_pair_completion_ub_9_1_8: +1 full_pair_completion_9 -1 full_end_1_8 +10000 assign_full_9_1_8 <= +10000
 full_pair_completion_lb_9_1_9: +1 full_pair_completion_9 -1 full_end_1_9 -10000 assign_full_9_1_9 >= -10000
 full_pair_completion_ub_9_1_9: +1 full_pair_completion_9 -1 full_end_1_9 +10000 assign_full_9_1_9 <= +10000
 full_pair_completion_lb_9_1_10: +1 full_pair_completion_9 -1 full_end_1_10 -10000 assign_full_9_1_10
  >= -10000
 full_pair_completion_ub_9_1_10: +1 full_pair_completion_9 -1 full_end_1_10 +10000 assign_full_9_1_10
  <= +10000
 full_pair_completion_lb_9_2_1: +1 full_pair_completion_9 -1 full_end_2_1 -10000 assign_full_9_2_1 >= -10000
 full_pair_completion_ub_9_2_1: +1 full_pair_completion_9 -1 full_end_2_1 +10000 assign_full_9_2_1 <= +10000
 full_pair_completion_lb_9_2_2: +1 full_pair_completion_9 -1 full_end_2_2 -10000 assign_full_9_2_2 >= -10000
 full_pair_completion_ub_9_2_2: +1 full_pair_completion_9 -1 full_end_2_2 +10000 assign_full_9_2_2 <= +10000
 full_pair_completion_lb_9_2_3: +1 full_pair_completion_9 -1 full_end_2_3 -10000 assign_full_9_2_3 >= -10000
 full_pair_completion_ub_9_2_3: +1 full_pair_completion_9 -1 full_end_2_3 +10000 assign_full_9_2_3 <= +10000
 full_pair_completion_lb_9_2_4: +1 full_pair_completion_9 -1 full_end_2_4 -10000 assign_full_9_2_4 >= -10000
 full_pair_completion_ub_9_2_4: +1 full_pair_completion_9 -1 full_end_2_4 +10000 assign_full_9_2_4 <= +10000
 full_pair_completion_lb_9_2_5: +1 full_pair_completion_9 -1 full_end_2_5 -10000 assign_full_9_2_5 >= -10000
 full_pair_completion_ub_9_2_5: +1 full_pair_completion_9 -1 full_end_2_5 +10000 assign_full_9_2_5 <= +10000
 full_pair_completion_lb_9_2_6: +1 full_pair_completion_9 -1 full_end_2_6 -10000 assign_full_9_2_6 >= -10000
 full_pair_completion_ub_9_2_6: +1 full_pair_completion_9 -1 full_end_2_6 +10000 assign_full_9_2_6 <= +10000
 full_pair_completion_lb_9_2_7: +1 full_pair_completion_9 -1 full_end_2_7 -10000 assign_full_9_2_7 >= -10000
 full_pair_completion_ub_9_2_7: +1 full_pair_completion_9 -1 full_end_2_7 +10000 assign_full_9_2_7 <= +10000
 full_pair_completion_lb_9_2_8: +1 full_pair_completion_9 -1 full_end_2_8 -10000 assign_full_9_2_8 >= -10000
 full_pair_completion_ub_9_2_8: +1 full_pair_completion_9 -1 full_end_2_8 +10000 assign_full_9_2_8 <= +10000
 full_pair_completion_lb_9_2_9: +1 full_pair_completion_9 -1 full_end_2_9 -10000 assign_full_9_2_9 >= -10000
 full_pair_completion_ub_9_2_9: +1 full_pair_completion_9 -1 full_end_2_9 +10000 assign_full_9_2_9 <= +10000
 full_pair_completion_lb_9_2_10: +1 full_pair_completion_9 -1 full_end_2_10 -10000 assign_full_9_2_10
  >= -10000
 full_pair_completion_ub_9_2_10: +1 full_pair_completion_9 -1 full_end_2_10 +10000 assign_full_9_2_10
  <= +10000
 full_pair_completion_lb_10_1_1: +1 full_pair_completion_10 -1 full_end_1_1 -10000 assign_full_10_1_1
  >= -10000
 full_pair_completion_ub_10_1_1: +1 full_pair_completion_10 -1 full_end_1_1 +10000 assign_full_10_1_1
  <= +10000
 full_pair_completion_lb_10_1_2: +1 full_pair_completion_10 -1 full_end_1_2 -10000 assign_full_10_1_2
  >= -10000
 full_pair_completion_ub_10_1_2: +1 full_pair_completion_10 -1 full_end_1_2 +10000 assign_full_10_1_2
  <= +10000
 full_pair_completion_lb_10_1_3: +1 full_pair_completion_10 -1 full_end_1_3 -10000 assign_full_10_1_3
  >= -10000
 full_pair_completion_ub_10_1_3: +1 full_pair_completion_10 -1 full_end_1_3 +10000 assign_full_10_1_3
  <= +10000
 full_pair_completion_lb_10_1_4: +1 full_pair_completion_10 -1 full_end_1_4 -10000 assign_full_10_1_4
  >= -10000
 full_pair_completion_ub_10_1_4: +1 full_pair_completion_10 -1 full_end_1_4 +10000 assign_full_10_1_4
  <= +10000
 full_pair_completion_lb_10_1_5: +1 full_pair_completion_10 -1 full_end_1_5 -10000 assign_full_10_1_5
  >= -10000
 full_pair_completion_ub_10_1_5: +1 full_pair_completion_10 -1 full_end_1_5 +10000 assign_full_10_1_5
  <= +10000
 full_pair_completion_lb_10_1_6: +1 full_pair_completion_10 -1 full_end_1_6 -10000 assign_full_10_1_6
  >= -10000
 full_pair_completion_ub_10_1_6: +1 full_pair_completion_10 -1 full_end_1_6 +10000 assign_full_10_1_6
  <= +10000
 full_pair_completion_lb_10_1_7: +1 full_pair_completion_10 -1 full_end_1_7 -10000 assign_full_10_1_7
  >= -10000
 full_pair_completion_ub_10_1_7: +1 full_pair_completion_10 -1 full_end_1_7 +10000 assign_full_10_1_7
  <= +10000
 full_pair_completion_lb_10_1_8: +1 full_pair_completion_10 -1 full_end_1_8 -10000 assign_full_10_1_8
  >= -10000
 full_pair_completion_ub_10_1_8: +1 full_pair_completion_10 -1 full_end_1_8 +10000 assign_full_10_1_8
  <= +10000
 full_pair_completion_lb_10_1_9: +1 full_pair_completion_10 -1 full_end_1_9 -10000 assign_full_10_1_9
  >= -10000
 full_pair_completion_ub_10_1_9: +1 full_pair_completion_10 -1 full_end_1_9 +10000 assign_full_10_1_9
  <= +10000
 full_pair_completion_lb_10_1_10: +1 full_pair_completion_10 -1 full_end_1_10 -10000 assign_full_10_1_10
  >= -10000
 full_pair_completion_ub_10_1_10: +1 full_pair_completion_10 -1 full_end_1_10 +10000 assign_full_10_1_10
  <= +10000
 full_pair_completion_lb_10_2_1: +1 full_pair_completion_10 -1 full_end_2_1 -10000 assign_full_10_2_1
  >= -10000
 full_pair_completion_ub_10_2_1: +1 full_pair_completion_10 -1 full_end_2_1 +10000 assign_full_10_2_1
  <= +10000
 full_pair_completion_lb_10_2_2: +1 full_pair_completion_10 -1 full_end_2_2 -10000 assign_full_10_2_2
  >= -10000
 full_pair_completion_ub_10_2_2: +1 full_pair_completion_10 -1 full_end_2_2 +10000 assign_full_10_2_2
  <= +10000
 full_pair_completion_lb_10_2_3: +1 full_pair_completion_10 -1 full_end_2_3 -10000 assign_full_10_2_3
  >= -10000
 full_pair_completion_ub_10_2_3: +1 full_pair_completion_10 -1 full_end_2_3 +10000 assign_full_10_2_3
  <= +10000
 full_pair_completion_lb_10_2_4: +1 full_pair_completion_10 -1 full_end_2_4 -10000 assign_full_10_2_4
  >= -10000
 full_pair_completion_ub_10_2_4: +1 full_pair_completion_10 -1 full_end_2_4 +10000 assign_full_10_2_4
  <= +10000
 full_pair_completion_lb_10_2_5: +1 full_pair_completion_10 -1 full_end_2_5 -10000 assign_full_10_2_5
  >= -10000
 full_pair_completion_ub_10_2_5: +1 full_pair_completion_10 -1 full_end_2_5 +10000 assign_full_10_2_5
  <= +10000
 full_pair_completion_lb_10_2_6: +1 full_pair_completion_10 -1 full_end_2_6 -10000 assign_full_10_2_6
  >= -10000
 full_pair_completion_ub_10_2_6: +1 full_pair_completion_10 -1 full_end_2_6 +10000 assign_full_10_2_6
  <= +10000
 full_pair_completion_lb_10_2_7: +1 full_pair_completion_10 -1 full_end_2_7 -10000 assign_full_10_2_7
  >= -10000
 full_pair_completion_ub_10_2_7: +1 full_pair_completion_10 -1 full_end_2_7 +10000 assign_full_10_2_7
  <= +10000
 full_pair_completion_lb_10_2_8: +1 full_pair_completion_10 -1 full_end_2_8 -10000 assign_full_10_2_8
  >= -10000
 full_pair_completion_ub_10_2_8: +1 full_pair_completion_10 -1 full_end_2_8 +10000 assign_full_10_2_8
  <= +10000
 full_pair_completion_lb_10_2_9: +1 full_pair_completion_10 -1 full_end_2_9 -10000 assign_full_10_2_9
  >= -10000
 full_pair_completion_ub_10_2_9: +1 full_pair_completion_10 -1 full_end_2_9 +10000 assign_full_10_2_9
  <= +10000
 full_pair_completion_lb_10_2_10: +1 full_pair_completion_10 -1 full_end_2_10 -10000 assign_full_10_2_10
  >= -10000
 full_pair_completion_ub_10_2_10: +1 full_pair_completion_10 -1 full_end_2_10 +10000 assign_full_10_2_10
  <= +10000
 full_pair_completion_lb_11_1_1: +1 full_pair_completion_11 -1 full_end_1_1 -10000 assign_full_11_1_1
  >= -10000
 full_pair_completion_ub_11_1_1: +1 full_pair_completion_11 -1 full_end_1_1 +10000 assign_full_11_1_1
  <= +10000
 full_pair_completion_lb_11_1_2: +1 full_pair_completion_11 -1 full_end_1_2 -10000 assign_full_11_1_2
  >= -10000
 full_pair_completion_ub_11_1_2: +1 full_pair_completion_11 -1 full_end_1_2 +10000 assign_full_11_1_2
  <= +10000
 full_pair_completion_lb_11_1_3: +1 full_pair_completion_11 -1 full_end_1_3 -10000 assign_full_11_1_3
  >= -10000
 full_pair_completion_ub_11_1_3: +1 full_pair_completion_11 -1 full_end_1_3 +10000 assign_full_11_1_3
  <= +10000
 full_pair_completion_lb_11_1_4: +1 full_pair_completion_11 -1 full_end_1_4 -10000 assign_full_11_1_4
  >= -10000
 full_pair_completion_ub_11_1_4: +1 full_pair_completion_11 -1 full_end_1_4 +10000 assign_full_11_1_4
  <= +10000
 full_pair_completion_lb_11_1_5: +1 full_pair_completion_11 -1 full_end_1_5 -10000 assign_full_11_1_5
  >= -10000
 full_pair_completion_ub_11_1_5: +1 full_pair_completion_11 -1 full_end_1_5 +10000 assign_full_11_1_5
  <= +10000
 full_pair_completion_lb_11_1_6: +1 full_pair_completion_11 -1 full_end_1_6 -10000 assign_full_11_1_6
  >= -10000
 full_pair_completion_ub_11_1_6: +1 full_pair_completion_11 -1 full_end_1_6 +10000 assign_full_11_1_6
  <= +10000
 full_pair_completion_lb_11_1_7: +1 full_pair_completion_11 -1 full_end_1_7 -10000 assign_full_11_1_7
  >= -10000
 full_pair_completion_ub_11_1_7: +1 full_pair_completion_11 -1 full_end_1_7 +10000 assign_full_11_1_7
  <= +10000
 full_pair_completion_lb_11_1_8: +1 full_pair_completion_11 -1 full_end_1_8 -10000 assign_full_11_1_8
  >= -10000
 full_pair_completion_ub_11_1_8: +1 full_pair_completion_11 -1 full_end_1_8 +10000 assign_full_11_1_8
  <= +10000
 full_pair_completion_lb_11_1_9: +1 full_pair_completion_11 -1 full_end_1_9 -10000 assign_full_11_1_9
  >= -10000
 full_pair_completion_ub_11_1_9: +1 full_pair_completion_11 -1 full_end_1_9 +10000 assign_full_11_1_9
  <= +10000
 full_pair_completion_lb_11_1_10: +1 full_pair_completion_11 -1 full_end_1_10 -10000 assign_full_11_1_10
  >= -10000
 full_pair_completion_ub_11_1_10: +1 full_pair_completion_11 -1 full_end_1_10 +10000 assign_full_11_1_10
  <= +10000
 full_pair_completion_lb_11_2_1: +1 full_pair_completion_11 -1 full_end_2_1 -10000 assign_full_11_2_1
  >= -10000
 full_pair_completion_ub_11_2_1: +1 full_pair_completion_11 -1 full_end_2_1 +10000 assign_full_11_2_1
  <= +10000
 full_pair_completion_lb_11_2_2: +1 full_pair_completion_11 -1 full_end_2_2 -10000 assign_full_11_2_2
  >= -10000
 full_pair_completion_ub_11_2_2: +1 full_pair_completion_11 -1 full_end_2_2 +10000 assign_full_11_2_2
  <= +10000
 full_pair_completion_lb_11_2_3: +1 full_pair_completion_11 -1 full_end_2_3 -10000 assign_full_11_2_3
  >= -10000
 full_pair_completion_ub_11_2_3: +1 full_pair_completion_11 -1 full_end_2_3 +10000 assign_full_11_2_3
  <= +10000
 full_pair_completion_lb_11_2_4: +1 full_pair_completion_11 -1 full_end_2_4 -10000 assign_full_11_2_4
  >= -10000
 full_pair_completion_ub_11_2_4: +1 full_pair_completion_11 -1 full_end_2_4 +10000 assign_full_11_2_4
  <= +10000
 full_pair_completion_lb_11_2_5: +1 full_pair_completion_11 -1 full_end_2_5 -10000 assign_full_11_2_5
  >= -10000
 full_pair_completion_ub_11_2_5: +1 full_pair_completion_11 -1 full_end_2_5 +10000 assign_full_11_2_5
  <= +10000
 full_pair_completion_lb_11_2_6: +1 full_pair_completion_11 -1 full_end_2_6 -10000 assign_full_11_2_6
  >= -10000
 full_pair_completion_ub_11_2_6: +1 full_pair_completion_11 -1 full_end_2_6 +10000 assign_full_11_2_6
  <= +10000
 full_pair_completion_lb_11_2_7: +1 full_pair_completion_11 -1 full_end_2_7 -10000 assign_full_11_2_7
  >= -10000
 full_pair_completion_ub_11_2_7: +1 full_pair_completion_11 -1 full_end_2_7 +10000 assign_full_11_2_7
  <= +10000
 full_pair_completion_lb_11_2_8: +1 full_pair_completion_11 -1 full_end_2_8 -10000 assign_full_11_2_8
  >= -10000
 full_pair_completion_ub_11_2_8: +1 full_pair_completion_11 -1 full_end_2_8 +10000 assign_full_11_2_8
  <= +10000
 full_pair_completion_lb_11_2_9: +1 full_pair_completion_11 -1 full_end_2_9 -10000 assign_full_11_2_9
  >= -10000
 full_pair_completion_ub_11_2_9: +1 full_pair_completion_11 -1 full_end_2_9 +10000 assign_full_11_2_9
  <= +10000
 full_pair_completion_lb_11_2_10: +1 full_pair_completion_11 -1 full_end_2_10 -10000 assign_full_11_2_10
  >= -10000
 full_pair_completion_ub_11_2_10: +1 full_pair_completion_11 -1 full_end_2_10 +10000 assign_full_11_2_10
  <= +10000
 full_pair_completion_lb_12_1_1: +1 full_pair_completion_12 -1 full_end_1_1 -10000 assign_full_12_1_1
  >= -10000
 full_pair_completion_ub_12_1_1: +1 full_pair_completion_12 -1 full_end_1_1 +10000 assign_full_12_1_1
  <= +10000
 full_pair_completion_lb_12_1_2: +1 full_pair_completion_12 -1 full_end_1_2 -10000 assign_full_12_1_2
  >= -10000
 full_pair_completion_ub_12_1_2: +1 full_pair_completion_12 -1 full_end_1_2 +10000 assign_full_12_1_2
  <= +10000
 full_pair_completion_lb_12_1_3: +1 full_pair_completion_12 -1 full_end_1_3 -10000 assign_full_12_1_3
  >= -10000
 full_pair_completion_ub_12_1_3: +1 full_pair_completion_12 -1 full_end_1_3 +10000 assign_full_12_1_3
  <= +10000
 full_pair_completion_lb_12_1_4: +1 full_pair_completion_12 -1 full_end_1_4 -10000 assign_full_12_1_4
  >= -10000
 full_pair_completion_ub_12_1_4: +1 full_pair_completion_12 -1 full_end_1_4 +10000 assign_full_12_1_4
  <= +10000
 full_pair_completion_lb_12_1_5: +1 full_pair_completion_12 -1 full_end_1_5 -10000 assign_full_12_1_5
  >= -10000
 full_pair_completion_ub_12_1_5: +1 full_pair_completion_12 -1 full_end_1_5 +10000 assign_full_12_1_5
  <= +10000
 full_pair_completion_lb_12_1_6: +1 full_pair_completion_12 -1 full_end_1_6 -10000 assign_full_12_1_6
  >= -10000
 full_pair_completion_ub_12_1_6: +1 full_pair_completion_12 -1 full_end_1_6 +10000 assign_full_12_1_6
  <= +10000
 full_pair_completion_lb_12_1_7: +1 full_pair_completion_12 -1 full_end_1_7 -10000 assign_full_12_1_7
  >= -10000
 full_pair_completion_ub_12_1_7: +1 full_pair_completion_12 -1 full_end_1_7 +10000 assign_full_12_1_7
  <= +10000
 full_pair_completion_lb_12_1_8: +1 full_pair_completion_12 -1 full_end_1_8 -10000 assign_full_12_1_8
  >= -10000
 full_pair_completion_ub_12_1_8: +1 full_pair_completion_12 -1 full_end_1_8 +10000 assign_full_12_1_8
  <= +10000
 full_pair_completion_lb_12_1_9: +1 full_pair_completion_12 -1 full_end_1_9 -10000 assign_full_12_1_9
  >= -10000
 full_pair_completion_ub_12_1_9: +1 full_pair_completion_12 -1 full_end_1_9 +10000 assign_full_12_1_9
  <= +10000
 full_pair_completion_lb_12_1_10: +1 full_pair_completion_12 -1 full_end_1_10 -10000 assign_full_12_1_10
  >= -10000
 full_pair_completion_ub_12_1_10: +1 full_pair_completion_12 -1 full_end_1_10 +10000 assign_full_12_1_10
  <= +10000
 full_pair_completion_lb_12_2_1: +1 full_pair_completion_12 -1 full_end_2_1 -10000 assign_full_12_2_1
  >= -10000
 full_pair_completion_ub_12_2_1: +1 full_pair_completion_12 -1 full_end_2_1 +10000 assign_full_12_2_1
  <= +10000
 full_pair_completion_lb_12_2_2: +1 full_pair_completion_12 -1 full_end_2_2 -10000 assign_full_12_2_2
  >= -10000
 full_pair_completion_ub_12_2_2: +1 full_pair_completion_12 -1 full_end_2_2 +10000 assign_full_12_2_2
  <= +10000
 full_pair_completion_lb_12_2_3: +1 full_pair_completion_12 -1 full_end_2_3 -10000 assign_full_12_2_3
  >= -10000
 full_pair_completion_ub_12_2_3: +1 full_pair_completion_12 -1 full_end_2_3 +10000 assign_full_12_2_3
  <= +10000
 full_pair_completion_lb_12_2_4: +1 full_pair_completion_12 -1 full_end_2_4 -10000 assign_full_12_2_4
  >= -10000
 full_pair_completion_ub_12_2_4: +1 full_pair_completion_12 -1 full_end_2_4 +10000 assign_full_12_2_4
  <= +10000
 full_pair_completion_lb_12_2_5: +1 full_pair_completion_12 -1 full_end_2_5 -10000 assign_full_12_2_5
  >= -10000
 full_pair_completion_ub_12_2_5: +1 full_pair_completion_12 -1 full_end_2_5 +10000 assign_full_12_2_5
  <= +10000
 full_pair_completion_lb_12_2_6: +1 full_pair_completion_12 -1 full_end_2_6 -10000 assign_full_12_2_6
  >= -10000
 full_pair_completion_ub_12_2_6: +1 full_pair_completion_12 -1 full_end_2_6 +10000 assign_full_12_2_6
  <= +10000
 full_pair_completion_lb_12_2_7: +1 full_pair_completion_12 -1 full_end_2_7 -10000 assign_full_12_2_7
  >= -10000
 full_pair_completion_ub_12_2_7: +1 full_pair_completion_12 -1 full_end_2_7 +10000 assign_full_12_2_7
  <= +10000
 full_pair_completion_lb_12_2_8: +1 full_pair_completion_12 -1 full_end_2_8 -10000 assign_full_12_2_8
  >= -10000
 full_pair_completion_ub_12_2_8: +1 full_pair_completion_12 -1 full_end_2_8 +10000 assign_full_12_2_8
  <= +10000
 full_pair_completion_lb_12_2_9: +1 full_pair_completion_12 -1 full_end_2_9 -10000 assign_full_12_2_9
  >= -10000
 full_pair_completion_ub_12_2_9: +1 full_pair_completion_12 -1 full_end_2_9 +10000 assign_full_12_2_9
  <= +10000
 full_pair_completion_lb_12_2_10: +1 full_pair_completion_12 -1 full_end_2_10 -10000 assign_full_12_2_10
  >= -10000
 full_pair_completion_ub_12_2_10: +1 full_pair_completion_12 -1 full_end_2_10 +10000 assign_full_12_2_10
  <= +10000
 mix_pair_completion_lb_1_1_1: +1 mix_pair_completion_1 -1 mix_cycle_end_1_2 -10000 assign_mix_1_1_1 >= -10000
 mix_pair_completion_ub_1_1_1: +1 mix_pair_completion_1 -1 mix_cycle_end_1_2 +10000 assign_mix_1_1_1 <= +10000
 mix_pair_completion_lb_1_1_2: +1 mix_pair_completion_1 -1 mix_cycle_end_1_3 -10000 assign_mix_1_1_2 >= -10000
 mix_pair_completion_ub_1_1_2: +1 mix_pair_completion_1 -1 mix_cycle_end_1_3 +10000 assign_mix_1_1_2 <= +10000
 mix_pair_completion_lb_1_1_3: +1 mix_pair_completion_1 -1 mix_cycle_end_1_4 -10000 assign_mix_1_1_3 >= -10000
 mix_pair_completion_ub_1_1_3: +1 mix_pair_completion_1 -1 mix_cycle_end_1_4 +10000 assign_mix_1_1_3 <= +10000
 mix_pair_completion_lb_1_1_4: +1 mix_pair_completion_1 -1 mix_cycle_end_1_5 -10000 assign_mix_1_1_4 >= -10000
 mix_pair_completion_ub_1_1_4: +1 mix_pair_completion_1 -1 mix_cycle_end_1_5 +10000 assign_mix_1_1_4 <= +10000
 mix_pair_completion_lb_1_1_5: +1 mix_pair_completion_1 -1 mix_cycle_end_1_6 -10000 assign_mix_1_1_5 >= -10000
 mix_pair_completion_ub_1_1_5: +1 mix_pair_completion_1 -1 mix_cycle_end_1_6 +10000 assign_mix_1_1_5 <= +10000
 mix_pair_completion_lb_1_1_6: +1 mix_pair_completion_1 -1 mix_cycle_end_1_7 -10000 assign_mix_1_1_6 >= -10000
 mix_pair_completion_ub_1_1_6: +1 mix_pair_completion_1 -1 mix_cycle_end_1_7 +10000 assign_mix_1_1_6 <= +10000
 mix_pair_completion_lb_1_1_7: +1 mix_pair_completion_1 -1 mix_cycle_end_1_8 -10000 assign_mix_1_1_7 >= -10000
 mix_pair_completion_ub_1_1_7: +1 mix_pair_completion_1 -1 mix_cycle_end_1_8 +10000 assign_mix_1_1_7 <= +10000
 mix_pair_completion_lb_1_1_8: +1 mix_pair_completion_1 -1 mix_cycle_end_1_9 -10000 assign_mix_1_1_8 >= -10000
 mix_pair_completion_ub_1_1_8: +1 mix_pair_completion_1 -1 mix_cycle_end_1_9 +10000 assign_mix_1_1_8 <= +10000
 mix_pair_completion_lb_1_2_1: +1 mix_pair_completion_1 -1 mix_cycle_end_2_2 -10000 assign_mix_1_2_1 >= -10000
 mix_pair_completion_ub_1_2_1: +1 mix_pair_completion_1 -1 mix_cycle_end_2_2 +10000 assign_mix_1_2_1 <= +10000
 mix_pair_completion_lb_1_2_2: +1 mix_pair_completion_1 -1 mix_cycle_end_2_3 -10000 assign_mix_1_2_2 >= -10000
 mix_pair_completion_ub_1_2_2: +1 mix_pair_completion_1 -1 mix_cycle_end_2_3 +10000 assign_mix_1_2_2 <= +10000
 mix_pair_completion_lb_1_2_3: +1 mix_pair_completion_1 -1 mix_cycle_end_2_4 -10000 assign_mix_1_2_3 >= -10000
 mix_pair_completion_ub_1_2_3: +1 mix_pair_completion_1 -1 mix_cycle_end_2_4 +10000 assign_mix_1_2_3 <= +10000
 mix_pair_completion_lb_1_2_4: +1 mix_pair_completion_1 -1 mix_cycle_end_2_5 -10000 assign_mix_1_2_4 >= -10000
 mix_pair_completion_ub_1_2_4: +1 mix_pair_completion_1 -1 mix_cycle_end_2_5 +10000 assign_mix_1_2_4 <= +10000
 mix_pair_completion_lb_1_2_5: +1 mix_pair_completion_1 -1 mix_cycle_end_2_6 -10000 assign_mix_1_2_5 >= -10000
 mix_pair_completion_ub_1_2_5: +1 mix_pair_completion_1 -1 mix_cycle_end_2_6 +10000 assign_mix_1_2_5 <= +10000
 mix_pair_completion_lb_1_2_6: +1 mix_pair_completion_1 -1 mix_cycle_end_2_7 -10000 assign_mix_1_2_6 >= -10000
 mix_pair_completion_ub_1_2_6: +1 mix_pair_completion_1 -1 mix_cycle_end_2_7 +10000 assign_mix_1_2_6 <= +10000
 mix_pair_completion_lb_1_2_7: +1 mix_pair_completion_1 -1 mix_cycle_end_2_8 -10000 assign_mix_1_2_7 >= -10000
 mix_pair_completion_ub_1_2_7: +1 mix_pair_completion_1 -1 mix_cycle_end_2_8 +10000 assign_mix_1_2_7 <= +10000
 mix_pair_completion_lb_1_2_8: +1 mix_pair_completion_1 -1 mix_cycle_end_2_9 -10000 assign_mix_1_2_8 >= -10000
 mix_pair_completion_ub_1_2_8: +1 mix_pair_completion_1 -1 mix_cycle_end_2_9 +10000 assign_mix_1_2_8 <= +10000
 mix_pair_completion_lb_2_1_1: +1 mix_pair_completion_2 -1 mix_cycle_end_1_2 -10000 assign_mix_2_1_1 >= -10000
 mix_pair_completion_ub_2_1_1: +1 mix_pair_completion_2 -1 mix_cycle_end_1_2 +10000 assign_mix_2_1_1 <= +10000
 mix_pair_completion_lb_2_1_2: +1 mix_pair_completion_2 -1 mix_cycle_end_1_3 -10000 assign_mix_2_1_2 >= -10000
 mix_pair_completion_ub_2_1_2: +1 mix_pair_completion_2 -1 mix_cycle_end_1_3 +10000 assign_mix_2_1_2 <= +10000
 mix_pair_completion_lb_2_1_3: +1 mix_pair_completion_2 -1 mix_cycle_end_1_4 -10000 assign_mix_2_1_3 >= -10000
 mix_pair_completion_ub_2_1_3: +1 mix_pair_completion_2 -1 mix_cycle_end_1_4 +10000 assign_mix_2_1_3 <= +10000
 mix_pair_completion_lb_2_1_4: +1 mix_pair_completion_2 -1 mix_cycle_end_1_5 -10000 assign_mix_2_1_4 >= -10000
 mix_pair_completion_ub_2_1_4: +1 mix_pair_completion_2 -1 mix_cycle_end_1_5 +10000 assign_mix_2_1_4 <= +10000
 mix_pair_completion_lb_2_1_5: +1 mix_pair_completion_2 -1 mix_cycle_end_1_6 -10000 assign_mix_2_1_5 >= -10000
 mix_pair_completion_ub_2_1_5: +1 mix_pair_completion_2 -1 mix_cycle_end_1_6 +10000 assign_mix_2_1_5 <= +10000
 mix_pair_completion_lb_2_1_6: +1 mix_pair_completion_2 -1 mix_cycle_end_1_7 -10000 assign_mix_2_1_6 >= -10000
 mix_pair_completion_ub_2_1_6: +1 mix_pair_completion_2 -1 mix_cycle_end_1_7 +10000 assign_mix_2_1_6 <= +10000
 mix_pair_completion_lb_2_1_7: +1 mix_pair_completion_2 -1 mix_cycle_end_1_8 -10000 assign_mix_2_1_7 >= -10000
 mix_pair_completion_ub_2_1_7: +1 mix_pair_completion_2 -1 mix_cycle_end_1_8 +10000 assign_mix_2_1_7 <= +10000
 mix_pair_completion_lb_2_1_8: +1 mix_pair_completion_2 -1 mix_cycle_end_1_9 -10000 assign_mix_2_1_8 >= -10000
 mix_pair_completion_ub_2_1_8: +1 mix_pair_completion_2 -1 mix_cycle_end_1_9 +10000 assign_mix_2_1_8 <= +10000
 mix_pair_completion_lb_2_2_1: +1 mix_pair_completion_2 -1 mix_cycle_end_2_2 -10000 assign_mix_2_2_1 >= -10000
 mix_pair_completion_ub_2_2_1: +1 mix_pair_completion_2 -1 mix_cycle_end_2_2 +10000 assign_mix_2_2_1 <= +10000
 mix_pair_completion_lb_2_2_2: +1 mix_pair_completion_2 -1 mix_cycle_end_2_3 -10000 assign_mix_2_2_2 >= -10000
 mix_pair_completion_ub_2_2_2: +1 mix_pair_completion_2 -1 mix_cycle_end_2_3 +10000 assign_mix_2_2_2 <= +10000
 mix_pair_completion_lb_2_2_3: +1 mix_pair_completion_2 -1 mix_cycle_end_2_4 -10000 assign_mix_2_2_3 >= -10000
 mix_pair_completion_ub_2_2_3: +1 mix_pair_completion_2 -1 mix_cycle_end_2_4 +10000 assign_mix_2_2_3 <= +10000
 mix_pair_completion_lb_2_2_4: +1 mix_pair_completion_2 -1 mix_cycle_end_2_5 -10000 assign_mix_2_2_4 >= -10000
 mix_pair_completion_ub_2_2_4: +1 mix_pair_completion_2 -1 mix_cycle_end_2_5 +10000 assign_mix_2_2_4 <= +10000
 mix_pair_completion_lb_2_2_5: +1 mix_pair_completion_2 -1 mix_cycle_end_2_6 -10000 assign_mix_2_2_5 >= -10000
 mix_pair_completion_ub_2_2_5: +1 mix_pair_completion_2 -1 mix_cycle_end_2_6 +10000 assign_mix_2_2_5 <= +10000
 mix_pair_completion_lb_2_2_6: +1 mix_pair_completion_2 -1 mix_cycle_end_2_7 -10000 assign_mix_2_2_6 >= -10000
 mix_pair_completion_ub_2_2_6: +1 mix_pair_completion_2 -1 mix_cycle_end_2_7 +10000 assign_mix_2_2_6 <= +10000
 mix_pair_completion_lb_2_2_7: +1 mix_pair_completion_2 -1 mix_cycle_end_2_8 -10000 assign_mix_2_2_7 >= -10000
 mix_pair_completion_ub_2_2_7: +1 mix_pair_completion_2 -1 mix_cycle_end_2_8 +10000 assign_mix_2_2_7 <= +10000
 mix_pair_completion_lb_2_2_8: +1 mix_pair_completion_2 -1 mix_cycle_end_2_9 -10000 assign_mix_2_2_8 >= -10000
 mix_pair_completion_ub_2_2_8: +1 mix_pair_completion_2 -1 mix_cycle_end_2_9 +10000 assign_mix_2_2_8 <= +10000
 mix_pair_completion_lb_3_1_1: +1 mix_pair_completion_3 -1 mix_cycle_end_1_2 -10000 assign_mix_3_1_1 >= -10000
 mix_pair_completion_ub_3_1_1: +1 mix_pair_completion_3 -1 mix_cycle_end_1_2 +10000 assign_mix_3_1_1 <= +10000
 mix_pair_completion_lb_3_1_2: +1 mix_pair_completion_3 -1 mix_cycle_end_1_3 -10000 assign_mix_3_1_2 >= -10000
 mix_pair_completion_ub_3_1_2: +1 mix_pair_completion_3 -1 mix_cycle_end_1_3 +10000 assign_mix_3_1_2 <= +10000
 mix_pair_completion_lb_3_1_3: +1 mix_pair_completion_3 -1 mix_cycle_end_1_4 -10000 assign_mix_3_1_3 >= -10000
 mix_pair_completion_ub_3_1_3: +1 mix_pair_completion_3 -1 mix_cycle_end_1_4 +10000 assign_mix_3_1_3 <= +10000
 mix_pair_completion_lb_3_1_4: +1 mix_pair_completion_3 -1 mix_cycle_end_1_5 -10000 assign_mix_3_1_4 >= -10000
 mix_pair_completion_ub_3_1_4: +1 mix_pair_completion_3 -1 mix_cycle_end_1_5 +10000 assign_mix_3_1_4 <= +10000
 mix_pair_completion_lb_3_1_5: +1 mix_pair_completion_3 -1 mix_cycle_end_1_6 -10000 assign_mix_3_1_5 >= -10000
 mix_pair_completion_ub_3_1_5: +1 mix_pair_completion_3 -1 mix_cycle_end_1_6 +10000 assign_mix_3_1_5 <= +10000
 mix_pair_completion_lb_3_1_6: +1 mix_pair_completion_3 -1 mix_cycle_end_1_7 -10000 assign_mix_3_1_6 >= -10000
 mix_pair_completion_ub_3_1_6: +1 mix_pair_completion_3 -1 mix_cycle_end_1_7 +10000 assign_mix_3_1_6 <= +10000
 mix_pair_completion_lb_3_1_7: +1 mix_pair_completion_3 -1 mix_cycle_end_1_8 -10000 assign_mix_3_1_7 >= -10000
 mix_pair_completion_ub_3_1_7: +1 mix_pair_completion_3 -1 mix_cycle_end_1_8 +10000 assign_mix_3_1_7 <= +10000
 mix_pair_completion_lb_3_1_8: +1 mix_pair_completion_3 -1 mix_cycle_end_1_9 -10000 assign_mix_3_1_8 >= -10000
 mix_pair_completion_ub_3_1_8: +1 mix_pair_completion_3 -1 mix_cycle_end_1_9 +10000 assign_mix_3_1_8 <= +10000
 mix_pair_completion_lb_3_2_1: +1 mix_pair_completion_3 -1 mix_cycle_end_2_2 -10000 assign_mix_3_2_1 >= -10000
 mix_pair_completion_ub_3_2_1: +1 mix_pair_completion_3 -1 mix_cycle_end_2_2 +10000 assign_mix_3_2_1 <= +10000
 mix_pair_completion_lb_3_2_2: +1 mix_pair_completion_3 -1 mix_cycle_end_2_3 -10000 assign_mix_3_2_2 >= -10000
 mix_pair_completion_ub_3_2_2: +1 mix_pair_completion_3 -1 mix_cycle_end_2_3 +10000 assign_mix_3_2_2 <= +10000
 mix_pair_completion_lb_3_2_3: +1 mix_pair_completion_3 -1 mix_cycle_end_2_4 -10000 assign_mix_3_2_3 >= -10000
 mix_pair_completion_ub_3_2_3: +1 mix_pair_completion_3 -1 mix_cycle_end_2_4 +10000 assign_mix_3_2_3 <= +10000
 mix_pair_completion_lb_3_2_4: +1 mix_pair_completion_3 -1 mix_cycle_end_2_5 -10000 assign_mix_3_2_4 >= -10000
 mix_pair_completion_ub_3_2_4: +1 mix_pair_completion_3 -1 mix_cycle_end_2_5 +10000 assign_mix_3_2_4 <= +10000
 mix_pair_completion_lb_3_2_5: +1 mix_pair_completion_3 -1 mix_cycle_end_2_6 -10000 assign_mix_3_2_5 >= -10000
 mix_pair_completion_ub_3_2_5: +1 mix_pair_completion_3 -1 mix_cycle_end_2_6 +10000 assign_mix_3_2_5 <= +10000
 mix_pair_completion_lb_3_2_6: +1 mix_pair_completion_3 -1 mix_cycle_end_2_7 -10000 assign_mix_3_2_6 >= -10000
 mix_pair_completion_ub_3_2_6: +1 mix_pair_completion_3 -1 mix_cycle_end_2_7 +10000 assign_mix_3_2_6 <= +10000
 mix_pair_completion_lb_3_2_7: +1 mix_pair_completion_3 -1 mix_cycle_end_2_8 -10000 assign_mix_3_2_7 >= -10000
 mix_pair_completion_ub_3_2_7: +1 mix_pair_completion_3 -1 mix_cycle_end_2_8 +10000 assign_mix_3_2_7 <= +10000
 mix_pair_completion_lb_3_2_8: +1 mix_pair_completion_3 -1 mix_cycle_end_2_9 -10000 assign_mix_3_2_8 >= -10000
 mix_pair_completion_ub_3_2_8: +1 mix_pair_completion_3 -1 mix_cycle_end_2_9 +10000 assign_mix_3_2_8 <= +10000
 mix_pair_completion_lb_4_1_1: +1 mix_pair_completion_4 -1 mix_cycle_end_1_2 -10000 assign_mix_4_1_1 >= -10000
 mix_pair_completion_ub_4_1_1: +1 mix_pair_completion_4 -1 mix_cycle_end_1_2 +10000 assign_mix_4_1_1 <= +10000
 mix_pair_completion_lb_4_1_2: +1 mix_pair_completion_4 -1 mix_cycle_end_1_3 -10000 assign_mix_4_1_2 >= -10000
 mix_pair_completion_ub_4_1_2: +1 mix_pair_completion_4 -1 mix_cycle_end_1_3 +10000 assign_mix_4_1_2 <= +10000
 mix_pair_completion_lb_4_1_3: +1 mix_pair_completion_4 -1 mix_cycle_end_1_4 -10000 assign_mix_4_1_3 >= -10000
 mix_pair_completion_ub_4_1_3: +1 mix_pair_completion_4 -1 mix_cycle_end_1_4 +10000 assign_mix_4_1_3 <= +10000
 mix_pair_completion_lb_4_1_4: +1 mix_pair_completion_4 -1 mix_cycle_end_1_5 -10000 assign_mix_4_1_4 >= -10000
 mix_pair_completion_ub_4_1_4: +1 mix_pair_completion_4 -1 mix_cycle_end_1_5 +10000 assign_mix_4_1_4 <= +10000
 mix_pair_completion_lb_4_1_5: +1 mix_pair_completion_4 -1 mix_cycle_end_1_6 -10000 assign_mix_4_1_5 >= -10000
 mix_pair_completion_ub_4_1_5: +1 mix_pair_completion_4 -1 mix_cycle_end_1_6 +10000 assign_mix_4_1_5 <= +10000
 mix_pair_completion_lb_4_1_6: +1 mix_pair_completion_4 -1 mix_cycle_end_1_7 -10000 assign_mix_4_1_6 >= -10000
 mix_pair_completion_ub_4_1_6: +1 mix_pair_completion_4 -1 mix_cycle_end_1_7 +10000 assign_mix_4_1_6 <= +10000
 mix_pair_completion_lb_4_1_7: +1 mix_pair_completion_4 -1 mix_cycle_end_1_8 -10000 assign_mix_4_1_7 >= -10000
 mix_pair_completion_ub_4_1_7: +1 mix_pair_completion_4 -1 mix_cycle_end_1_8 +10000 assign_mix_4_1_7 <= +10000
 mix_pair_completion_lb_4_1_8: +1 mix_pair_completion_4 -1 mix_cycle_end_1_9 -10000 assign_mix_4_1_8 >= -10000
 mix_pair_completion_ub_4_1_8: +1 mix_pair_completion_4 -1 mix_cycle_end_1_9 +10000 assign_mix_4_1_8 <= +10000
 mix_pair_completion_lb_4_2_1: +1 mix_pair_completion_4 -1 mix_cycle_end_2_2 -10000 assign_mix_4_2_1 >= -10000
 mix_pair_completion_ub_4_2_1: +1 mix_pair_completion_4 -1 mix_cycle_end_2_2 +10000 assign_mix_4_2_1 <= +10000
 mix_pair_completion_lb_4_2_2: +1 mix_pair_completion_4 -1 mix_cycle_end_2_3 -10000 assign_mix_4_2_2 >= -10000
 mix_pair_completion_ub_4_2_2: +1 mix_pair_completion_4 -1 mix_cycle_end_2_3 +10000 assign_mix_4_2_2 <= +10000
 mix_pair_completion_lb_4_2_3: +1 mix_pair_completion_4 -1 mix_cycle_end_2_4 -10000 assign_mix_4_2_3 >= -10000
 mix_pair_completion_ub_4_2_3: +1 mix_pair_completion_4 -1 mix_cycle_end_2_4 +10000 assign_mix_4_2_3 <= +10000
 mix_pair_completion_lb_4_2_4: +1 mix_pair_completion_4 -1 mix_cycle_end_2_5 -10000 assign_mix_4_2_4 >= -10000
 mix_pair_completion_ub_4_2_4: +1 mix_pair_completion_4 -1 mix_cycle_end_2_5 +10000 assign_mix_4_2_4 <= +10000
 mix_pair_completion_lb_4_2_5: +1 mix_pair_completion_4 -1 mix_cycle_end_2_6 -10000 assign_mix_4_2_5 >= -10000
 mix_pair_completion_ub_4_2_5: +1 mix_pair_completion_4 -1 mix_cycle_end_2_6 +10000 assign_mix_4_2_5 <= +10000
 mix_pair_completion_lb_4_2_6: +1 mix_pair_completion_4 -1 mix_cycle_end_2_7 -10000 assign_mix_4_2_6 >= -10000
 mix_pair_completion_ub_4_2_6: +1 mix_pair_completion_4 -1 mix_cycle_end_2_7 +10000 assign_mix_4_2_6 <= +10000
 mix_pair_completion_lb_4_2_7: +1 mix_pair_completion_4 -1 mix_cycle_end_2_8 -10000 assign_mix_4_2_7 >= -10000
 mix_pair_completion_ub_4_2_7: +1 mix_pair_completion_4 -1 mix_cycle_end_2_8 +10000 assign_mix_4_2_7 <= +10000
 mix_pair_completion_lb_4_2_8: +1 mix_pair_completion_4 -1 mix_cycle_end_2_9 -10000 assign_mix_4_2_8 >= -10000
 mix_pair_completion_ub_4_2_8: +1 mix_pair_completion_4 -1 mix_cycle_end_2_9 +10000 assign_mix_4_2_8 <= +10000
 mix_pair_completion_lb_5_1_1: +1 mix_pair_completion_5 -1 mix_cycle_end_1_2 -10000 assign_mix_5_1_1 >= -10000
 mix_pair_completion_ub_5_1_1: +1 mix_pair_completion_5 -1 mix_cycle_end_1_2 +10000 assign_mix_5_1_1 <= +10000
 mix_pair_completion_lb_5_1_2: +1 mix_pair_completion_5 -1 mix_cycle_end_1_3 -10000 assign_mix_5_1_2 >= -10000
 mix_pair_completion_ub_5_1_2: +1 mix_pair_completion_5 -1 mix_cycle_end_1_3 +10000 assign_mix_5_1_2 <= +10000
 mix_pair_completion_lb_5_1_3: +1 mix_pair_completion_5 -1 mix_cycle_end_1_4 -10000 assign_mix_5_1_3 >= -10000
 mix_pair_completion_ub_5_1_3: +1 mix_pair_completion_5 -1 mix_cycle_end_1_4 +10000 assign_mix_5_1_3 <= +10000
 mix_pair_completion_lb_5_1_4: +1 mix_pair_completion_5 -1 mix_cycle_end_1_5 -10000 assign_mix_5_1_4 >= -10000
 mix_pair_completion_ub_5_1_4: +1 mix_pair_completion_5 -1 mix_cycle_end_1_5 +10000 assign_mix_5_1_4 <= +10000
 mix_pair_completion_lb_5_1_5: +1 mix_pair_completion_5 -1 mix_cycle_end_1_6 -10000 assign_mix_5_1_5 >= -10000
 mix_pair_completion_ub_5_1_5: +1 mix_pair_completion_5 -1 mix_cycle_end_1_6 +10000 assign_mix_5_1_5 <= +10000
 mix_pair_completion_lb_5_1_6: +1 mix_pair_completion_5 -1 mix_cycle_end_1_7 -10000 assign_mix_5_1_6 >= -10000
 mix_pair_completion_ub_5_1_6: +1 mix_pair_completion_5 -1 mix_cycle_end_1_7 +10000 assign_mix_5_1_6 <= +10000
 mix_pair_completion_lb_5_1_7: +1 mix_pair_completion_5 -1 mix_cycle_end_1_8 -10000 assign_mix_5_1_7 >= -10000
 mix_pair_completion_ub_5_1_7: +1 mix_pair_completion_5 -1 mix_cycle_end_1_8 +10000 assign_mix_5_1_7 <= +10000
 mix_pair_completion_lb_5_1_8: +1 mix_pair_completion_5 -1 mix_cycle_end_1_9 -10000 assign_mix_5_1_8 >= -10000
 mix_pair_completion_ub_5_1_8: +1 mix_pair_completion_5 -1 mix_cycle_end_1_9 +10000 assign_mix_5_1_8 <= +10000
 mix_pair_completion_lb_5_2_1: +1 mix_pair_completion_5 -1 mix_cycle_end_2_2 -10000 assign_mix_5_2_1 >= -10000
 mix_pair_completion_ub_5_2_1: +1 mix_pair_completion_5 -1 mix_cycle_end_2_2 +10000 assign_mix_5_2_1 <= +10000
 mix_pair_completion_lb_5_2_2: +1 mix_pair_completion_5 -1 mix_cycle_end_2_3 -10000 assign_mix_5_2_2 >= -10000
 mix_pair_completion_ub_5_2_2: +1 mix_pair_completion_5 -1 mix_cycle_end_2_3 +10000 assign_mix_5_2_2 <= +10000
 mix_pair_completion_lb_5_2_3: +1 mix_pair_completion_5 -1 mix_cycle_end_2_4 -10000 assign_mix_5_2_3 >= -10000
 mix_pair_completion_ub_5_2_3: +1 mix_pair_completion_5 -1 mix_cycle_end_2_4 +10000 assign_mix_5_2_3 <= +10000
 mix_pair_completion_lb_5_2_4: +1 mix_pair_completion_5 -1 mix_cycle_end_2_5 -10000 assign_mix_5_2_4 >= -10000
 mix_pair_completion_ub_5_2_4: +1 mix_pair_completion_5 -1 mix_cycle_end_2_5 +10000 assign_mix_5_2_4 <= +10000
 mix_pair_completion_lb_5_2_5: +1 mix_pair_completion_5 -1 mix_cycle_end_2_6 -10000 assign_mix_5_2_5 >= -10000
 mix_pair_completion_ub_5_2_5: +1 mix_pair_completion_5 -1 mix_cycle_end_2_6 +10000 assign_mix_5_2_5 <= +10000
 mix_pair_completion_lb_5_2_6: +1 mix_pair_completion_5 -1 mix_cycle_end_2_7 -10000 assign_mix_5_2_6 >= -10000
 mix_pair_completion_ub_5_2_6: +1 mix_pair_completion_5 -1 mix_cycle_end_2_7 +10000 assign_mix_5_2_6 <= +10000
 mix_pair_completion_lb_5_2_7: +1 mix_pair_completion_5 -1 mix_cycle_end_2_8 -10000 assign_mix_5_2_7 >= -10000
 mix_pair_completion_ub_5_2_7: +1 mix_pair_completion_5 -1 mix_cycle_end_2_8 +10000 assign_mix_5_2_7 <= +10000
 mix_pair_completion_lb_5_2_8: +1 mix_pair_completion_5 -1 mix_cycle_end_2_9 -10000 assign_mix_5_2_8 >= -10000
 mix_pair_completion_ub_5_2_8: +1 mix_pair_completion_5 -1 mix_cycle_end_2_9 +10000 assign_mix_5_2_8 <= +10000
 mix_pair_completion_lb_6_1_1: +1 mix_pair_completion_6 -1 mix_cycle_end_1_2 -10000 assign_mix_6_1_1 >= -10000
 mix_pair_completion_ub_6_1_1: +1 mix_pair_completion_6 -1 mix_cycle_end_1_2 +10000 assign_mix_6_1_1 <= +10000
 mix_pair_completion_lb_6_1_2: +1 mix_pair_completion_6 -1 mix_cycle_end_1_3 -10000 assign_mix_6_1_2 >= -10000
 mix_pair_completion_ub_6_1_2: +1 mix_pair_completion_6 -1 mix_cycle_end_1_3 +10000 assign_mix_6_1_2 <= +10000
 mix_pair_completion_lb_6_1_3: +1 mix_pair_completion_6 -1 mix_cycle_end_1_4 -10000 assign_mix_6_1_3 >= -10000
 mix_pair_completion_ub_6_1_3: +1 mix_pair_completion_6 -1 mix_cycle_end_1_4 +10000 assign_mix_6_1_3 <= +10000
 mix_pair_completion_lb_6_1_4: +1 mix_pair_completion_6 -1 mix_cycle_end_1_5 -10000 assign_mix_6_1_4 >= -10000
 mix_pair_completion_ub_6_1_4: +1 mix_pair_completion_6 -1 mix_cycle_end_1_5 +10000 assign_mix_6_1_4 <= +10000
 mix_pair_completion_lb_6_1_5: +1 mix_pair_completion_6 -1 mix_cycle_end_1_6 -10000 assign_mix_6_1_5 >= -10000
 mix_pair_completion_ub_6_1_5: +1 mix_pair_completion_6 -1 mix_cycle_end_1_6 +10000 assign_mix_6_1_5 <= +10000
 mix_pair_completion_lb_6_1_6: +1 mix_pair_completion_6 -1 mix_cycle_end_1_7 -10000 assign_mix_6_1_6 >= -10000
 mix_pair_completion_ub_6_1_6: +1 mix_pair_completion_6 -1 mix_cycle_end_1_7 +10000 assign_mix_6_1_6 <= +10000
 mix_pair_completion_lb_6_1_7: +1 mix_pair_completion_6 -1 mix_cycle_end_1_8 -10000 assign_mix_6_1_7 >= -10000
 mix_pair_completion_ub_6_1_7: +1 mix_pair_completion_6 -1 mix_cycle_end_1_8 +10000 assign_mix_6_1_7 <= +10000
 mix_pair_completion_lb_6_1_8: +1 mix_pair_completion_6 -1 mix_cycle_end_1_9 -10000 assign_mix_6_1_8 >= -10000
 mix_pair_completion_ub_6_1_8: +1 mix_pair_completion_6 -1 mix_cycle_end_1_9 +10000 assign_mix_6_1_8 <= +10000
 mix_pair_completion_lb_6_2_1: +1 mix_pair_completion_6 -1 mix_cycle_end_2_2 -10000 assign_mix_6_2_1 >= -10000
 mix_pair_completion_ub_6_2_1: +1 mix_pair_completion_6 -1 mix_cycle_end_2_2 +10000 assign_mix_6_2_1 <= +10000
 mix_pair_completion_lb_6_2_2: +1 mix_pair_completion_6 -1 mix_cycle_end_2_3 -10000 assign_mix_6_2_2 >= -10000
 mix_pair_completion_ub_6_2_2: +1 mix_pair_completion_6 -1 mix_cycle_end_2_3 +10000 assign_mix_6_2_2 <= +10000
 mix_pair_completion_lb_6_2_3: +1 mix_pair_completion_6 -1 mix_cycle_end_2_4 -10000 assign_mix_6_2_3 >= -10000
 mix_pair_completion_ub_6_2_3: +1 mix_pair_completion_6 -1 mix_cycle_end_2_4 +10000 assign_mix_6_2_3 <= +10000
 mix_pair_completion_lb_6_2_4: +1 mix_pair_completion_6 -1 mix_cycle_end_2_5 -10000 assign_mix_6_2_4 >= -10000
 mix_pair_completion_ub_6_2_4: +1 mix_pair_completion_6 -1 mix_cycle_end_2_5 +10000 assign_mix_6_2_4 <= +10000
 mix_pair_completion_lb_6_2_5: +1 mix_pair_completion_6 -1 mix_cycle_end_2_6 -10000 assign_mix_6_2_5 >= -10000
 mix_pair_completion_ub_6_2_5: +1 mix_pair_completion_6 -1 mix_cycle_end_2_6 +10000 assign_mix_6_2_5 <= +10000
 mix_pair_completion_lb_6_2_6: +1 mix_pair_completion_6 -1 mix_cycle_end_2_7 -10000 assign_mix_6_2_6 >= -10000
 mix_pair_completion_ub_6_2_6: +1 mix_pair_completion_6 -1 mix_cycle_end_2_7 +10000 assign_mix_6_2_6 <= +10000
 mix_pair_completion_lb_6_2_7: +1 mix_pair_completion_6 -1 mix_cycle_end_2_8 -10000 assign_mix_6_2_7 >= -10000
 mix_pair_completion_ub_6_2_7: +1 mix_pair_completion_6 -1 mix_cycle_end_2_8 +10000 assign_mix_6_2_7 <= +10000
 mix_pair_completion_lb_6_2_8: +1 mix_pair_completion_6 -1 mix_cycle_end_2_9 -10000 assign_mix_6_2_8 >= -10000
 mix_pair_completion_ub_6_2_8: +1 mix_pair_completion_6 -1 mix_cycle_end_2_9 +10000 assign_mix_6_2_8 <= +10000
 mix_pair_completion_lb_7_1_1: +1 mix_pair_completion_7 -1 mix_cycle_end_1_2 -10000 assign_mix_7_1_1 >= -10000
 mix_pair_completion_ub_7_1_1: +1 mix_pair_completion_7 -1 mix_cycle_end_1_2 +10000 assign_mix_7_1_1 <= +10000
 mix_pair_completion_lb_7_1_2: +1 mix_pair_completion_7 -1 mix_cycle_end_1_3 -10000 assign_mix_7_1_2 >= -10000
 mix_pair_completion_ub_7_1_2: +1 mix_pair_completion_7 -1 mix_cycle_end_1_3 +10000 assign_mix_7_1_2 <= +10000
 mix_pair_completion_lb_7_1_3: +1 mix_pair_completion_7 -1 mix_cycle_end_1_4 -10000 assign_mix_7_1_3 >= -10000
 mix_pair_completion_ub_7_1_3: +1 mix_pair_completion_7 -1 mix_cycle_end_1_4 +10000 assign_mix_7_1_3 <= +10000
 mix_pair_completion_lb_7_1_4: +1 mix_pair_completion_7 -1 mix_cycle_end_1_5 -10000 assign_mix_7_1_4 >= -10000
 mix_pair_completion_ub_7_1_4: +1 mix_pair_completion_7 -1 mix_cycle_end_1_5 +10000 assign_mix_7_1_4 <= +10000
 mix_pair_completion_lb_7_1_5: +1 mix_pair_completion_7 -1 mix_cycle_end_1_6 -10000 assign_mix_7_1_5 >= -10000
 mix_pair_completion_ub_7_1_5: +1 mix_pair_completion_7 -1 mix_cycle_end_1_6 +10000 assign_mix_7_1_5 <= +10000
 mix_pair_completion_lb_7_1_6: +1 mix_pair_completion_7 -1 mix_cycle_end_1_7 -10000 assign_mix_7_1_6 >= -10000
 mix_pair_completion_ub_7_1_6: +1 mix_pair_completion_7 -1 mix_cycle_end_1_7 +10000 assign_mix_7_1_6 <= +10000
 mix_pair_completion_lb_7_1_7: +1 mix_pair_completion_7 -1 mix_cycle_end_1_8 -10000 assign_mix_7_1_7 >= -10000
 mix_pair_completion_ub_7_1_7: +1 mix_pair_completion_7 -1 mix_cycle_end_1_8 +10000 assign_mix_7_1_7 <= +10000
 mix_pair_completion_lb_7_1_8: +1 mix_pair_completion_7 -1 mix_cycle_end_1_9 -10000 assign_mix_7_1_8 >= -10000
 mix_pair_completion_ub_7_1_8: +1 mix_pair_completion_7 -1 mix_cycle_end_1_9 +10000 assign_mix_7_1_8 <= +10000
 mix_pair_completion_lb_7_2_1: +1 mix_pair_completion_7 -1 mix_cycle_end_2_2 -10000 assign_mix_7_2_1 >= -10000
 mix_pair_completion_ub_7_2_1: +1 mix_pair_completion_7 -1 mix_cycle_end_2_2 +10000 assign_mix_7_2_1 <= +10000
 mix_pair_completion_lb_7_2_2: +1 mix_pair_completion_7 -1 mix_cycle_end_2_3 -10000 assign_mix_7_2_2 >= -10000
 mix_pair_completion_ub_7_2_2: +1 mix_pair_completion_7 -1 mix_cycle_end_2_3 +10000 assign_mix_7_2_2 <= +10000
 mix_pair_completion_lb_7_2_3: +1 mix_pair_completion_7 -1 mix_cycle_end_2_4 -10000 assign_mix_7_2_3 >= -10000
 mix_pair_completion_ub_7_2_3: +1 mix_pair_completion_7 -1 mix_cycle_end_2_4 +10000 assign_mix_7_2_3 <= +10000
 mix_pair_completion_lb_7_2_4: +1 mix_pair_completion_7 -1 mix_cycle_end_2_5 -10000 assign_mix_7_2_4 >= -10000
 mix_pair_completion_ub_7_2_4: +1 mix_pair_completion_7 -1 mix_cycle_end_2_5 +10000 assign_mix_7_2_4 <= +10000
 mix_pair_completion_lb_7_2_5: +1 mix_pair_completion_7 -1 mix_cycle_end_2_6 -10000 assign_mix_7_2_5 >= -10000
 mix_pair_completion_ub_7_2_5: +1 mix_pair_completion_7 -1 mix_cycle_end_2_6 +10000 assign_mix_7_2_5 <= +10000
 mix_pair_completion_lb_7_2_6: +1 mix_pair_completion_7 -1 mix_cycle_end_2_7 -10000 assign_mix_7_2_6 >= -10000
 mix_pair_completion_ub_7_2_6: +1 mix_pair_completion_7 -1 mix_cycle_end_2_7 +10000 assign_mix_7_2_6 <= +10000
 mix_pair_completion_lb_7_2_7: +1 mix_pair_completion_7 -1 mix_cycle_end_2_8 -10000 assign_mix_7_2_7 >= -10000
 mix_pair_completion_ub_7_2_7: +1 mix_pair_completion_7 -1 mix_cycle_end_2_8 +10000 assign_mix_7_2_7 <= +10000
 mix_pair_completion_lb_7_2_8: +1 mix_pair_completion_7 -1 mix_cycle_end_2_9 -10000 assign_mix_7_2_8 >= -10000
 mix_pair_completion_ub_7_2_8: +1 mix_pair_completion_7 -1 mix_cycle_end_2_9 +10000 assign_mix_7_2_8 <= +10000
 mix_pair_completion_lb_8_1_1: +1 mix_pair_completion_8 -1 mix_cycle_end_1_2 -10000 assign_mix_8_1_1 >= -10000
 mix_pair_completion_ub_8_1_1: +1 mix_pair_completion_8 -1 mix_cycle_end_1_2 +10000 assign_mix_8_1_1 <= +10000
 mix_pair_completion_lb_8_1_2: +1 mix_pair_completion_8 -1 mix_cycle_end_1_3 -10000 assign_mix_8_1_2 >= -10000
 mix_pair_completion_ub_8_1_2: +1 mix_pair_completion_8 -1 mix_cycle_end_1_3 +10000 assign_mix_8_1_2 <= +10000
 mix_pair_completion_lb_8_1_3: +1 mix_pair_completion_8 -1 mix_cycle_end_1_4 -10000 assign_mix_8_1_3 >= -10000
 mix_pair_completion_ub_8_1_3: +1 mix_pair_completion_8 -1 mix_cycle_end_1_4 +10000 assign_mix_8_1_3 <= +10000
 mix_pair_completion_lb_8_1_4: +1 mix_pair_completion_8 -1 mix_cycle_end_1_5 -10000 assign_mix_8_1_4 >= -10000
 mix_pair_completion_ub_8_1_4: +1 mix_pair_completion_8 -1 mix_cycle_end_1_5 +10000 assign_mix_8_1_4 <= +10000
 mix_pair_completion_lb_8_1_5: +1 mix_pair_completion_8 -1 mix_cycle_end_1_6 -10000 assign_mix_8_1_5 >= -10000
 mix_pair_completion_ub_8_1_5: +1 mix_pair_completion_8 -1 mix_cycle_end_1_6 +10000 assign_mix_8_1_5 <= +10000
 mix_pair_completion_lb_8_1_6: +1 mix_pair_completion_8 -1 mix_cycle_end_1_7 -10000 assign_mix_8_1_6 >= -10000
 mix_pair_completion_ub_8_1_6: +1 mix_pair_completion_8 -1 mix_cycle_end_1_7 +10000 assign_mix_8_1_6 <= +10000
 mix_pair_completion_lb_8_1_7: +1 mix_pair_completion_8 -1 mix_cycle_end_1_8 -10000 assign_mix_8_1_7 >= -10000
 mix_pair_completion_ub_8_1_7: +1 mix_pair_completion_8 -1 mix_cycle_end_1_8 +10000 assign_mix_8_1_7 <= +10000
 mix_pair_completion_lb_8_1_8: +1 mix_pair_completion_8 -1 mix_cycle_end_1_9 -10000 assign_mix_8_1_8 >= -10000
 mix_pair_completion_ub_8_1_8: +1 mix_pair_completion_8 -1 mix_cycle_end_1_9 +10000 assign_mix_8_1_8 <= +10000
 mix_pair_completion_lb_8_2_1: +1 mix_pair_completion_8 -1 mix_cycle_end_2_2 -10000 assign_mix_8_2_1 >= -10000
 mix_pair_completion_ub_8_2_1: +1 mix_pair_completion_8 -1 mix_cycle_end_2_2 +10000 assign_mix_8_2_1 <= +10000
 mix_pair_completion_lb_8_2_2: +1 mix_pair_completion_8 -1 mix_cycle_end_2_3 -10000 assign_mix_8_2_2 >= -10000
 mix_pair_completion_ub_8_2_2: +1 mix_pair_completion_8 -1 mix_cycle_end_2_3 +10000 assign_mix_8_2_2 <= +10000
 mix_pair_completion_lb_8_2_3: +1 mix_pair_completion_8 -1 mix_cycle_end_2_4 -10000 assign_mix_8_2_3 >= -10000
 mix_pair_completion_ub_8_2_3: +1 mix_pair_completion_8 -1 mix_cycle_end_2_4 +10000 assign_mix_8_2_3 <= +10000
 mix_pair_completion_lb_8_2_4: +1 mix_pair_completion_8 -1 mix_cycle_end_2_5 -10000 assign_mix_8_2_4 >= -10000
 mix_pair_completion_ub_8_2_4: +1 mix_pair_completion_8 -1 mix_cycle_end_2_5 +10000 assign_mix_8_2_4 <= +10000
 mix_pair_completion_lb_8_2_5: +1 mix_pair_completion_8 -1 mix_cycle_end_2_6 -10000 assign_mix_8_2_5 >= -10000
 mix_pair_completion_ub_8_2_5: +1 mix_pair_completion_8 -1 mix_cycle_end_2_6 +10000 assign_mix_8_2_5 <= +10000
 mix_pair_completion_lb_8_2_6: +1 mix_pair_completion_8 -1 mix_cycle_end_2_7 -10000 assign_mix_8_2_6 >= -10000
 mix_pair_completion_ub_8_2_6: +1 mix_pair_completion_8 -1 mix_cycle_end_2_7 +10000 assign_mix_8_2_6 <= +10000
 mix_pair_completion_lb_8_2_7: +1 mix_pair_completion_8 -1 mix_cycle_end_2_8 -10000 assign_mix_8_2_7 >= -10000
 mix_pair_completion_ub_8_2_7: +1 mix_pair_completion_8 -1 mix_cycle_end_2_8 +10000 assign_mix_8_2_7 <= +10000
 mix_pair_completion_lb_8_2_8: +1 mix_pair_completion_8 -1 mix_cycle_end_2_9 -10000 assign_mix_8_2_8 >= -10000
 mix_pair_completion_ub_8_2_8: +1 mix_pair_completion_8 -1 mix_cycle_end_2_9 +10000 assign_mix_8_2_8 <= +10000
 wafer_full_completion_lb_1_1: +1 wafer_completion_1 -1 full_pair_completion_1 -10000 wafer_to_full_pair_1_1
  >= -10000
 wafer_full_completion_ub_1_1: +1 wafer_completion_1 -1 full_pair_completion_1 +10000 wafer_to_full_pair_1_1
  <= +10000
 wafer_full_completion_lb_1_2: +1 wafer_completion_1 -1 full_pair_completion_2 -10000 wafer_to_full_pair_1_2
  >= -10000
 wafer_full_completion_ub_1_2: +1 wafer_completion_1 -1 full_pair_completion_2 +10000 wafer_to_full_pair_1_2
  <= +10000
 wafer_full_completion_lb_1_3: +1 wafer_completion_1 -1 full_pair_completion_3 -10000 wafer_to_full_pair_1_3
  >= -10000
 wafer_full_completion_ub_1_3: +1 wafer_completion_1 -1 full_pair_completion_3 +10000 wafer_to_full_pair_1_3
  <= +10000
 wafer_full_completion_lb_1_4: +1 wafer_completion_1 -1 full_pair_completion_4 -10000 wafer_to_full_pair_1_4
  >= -10000
 wafer_full_completion_ub_1_4: +1 wafer_completion_1 -1 full_pair_completion_4 +10000 wafer_to_full_pair_1_4
  <= +10000
 wafer_full_completion_lb_1_5: +1 wafer_completion_1 -1 full_pair_completion_5 -10000 wafer_to_full_pair_1_5
  >= -10000
 wafer_full_completion_ub_1_5: +1 wafer_completion_1 -1 full_pair_completion_5 +10000 wafer_to_full_pair_1_5
  <= +10000
 wafer_full_completion_lb_1_6: +1 wafer_completion_1 -1 full_pair_completion_6 -10000 wafer_to_full_pair_1_6
  >= -10000
 wafer_full_completion_ub_1_6: +1 wafer_completion_1 -1 full_pair_completion_6 +10000 wafer_to_full_pair_1_6
  <= +10000
 wafer_full_completion_lb_1_7: +1 wafer_completion_1 -1 full_pair_completion_7 -10000 wafer_to_full_pair_1_7
  >= -10000
 wafer_full_completion_ub_1_7: +1 wafer_completion_1 -1 full_pair_completion_7 +10000 wafer_to_full_pair_1_7
  <= +10000
 wafer_full_completion_lb_1_8: +1 wafer_completion_1 -1 full_pair_completion_8 -10000 wafer_to_full_pair_1_8
  >= -10000
 wafer_full_completion_ub_1_8: +1 wafer_completion_1 -1 full_pair_completion_8 +10000 wafer_to_full_pair_1_8
  <= +10000
 wafer_full_completion_lb_1_9: +1 wafer_completion_1 -1 full_pair_completion_9 -10000 wafer_to_full_pair_1_9
  >= -10000
 wafer_full_completion_ub_1_9: +1 wafer_completion_1 -1 full_pair_completion_9 +10000 wafer_to_full_pair_1_9
  <= +10000
 wafer_full_completion_lb_1_10: +1 wafer_completion_1 -1 full_pair_completion_10 -10000 wafer_to_full_pair_1_10
  >= -10000
 wafer_full_completion_ub_1_10: +1 wafer_completion_1 -1 full_pair_completion_10 +10000 wafer_to_full_pair_1_10
  <= +10000
 wafer_full_completion_lb_1_11: +1 wafer_completion_1 -1 full_pair_completion_11 -10000 wafer_to_full_pair_1_11
  >= -10000
 wafer_full_completion_ub_1_11: +1 wafer_completion_1 -1 full_pair_completion_11 +10000 wafer_to_full_pair_1_11
  <= +10000
 wafer_full_completion_lb_1_12: +1 wafer_completion_1 -1 full_pair_completion_12 -10000 wafer_to_full_pair_1_12
  >= -10000
 wafer_full_completion_ub_1_12: +1 wafer_completion_1 -1 full_pair_completion_12 +10000 wafer_to_full_pair_1_12
  <= +10000
 wafer_full_completion_lb_2_1: +1 wafer_completion_2 -1 full_pair_completion_1 -10000 wafer_to_full_pair_2_1
  >= -10000
 wafer_full_completion_ub_2_1: +1 wafer_completion_2 -1 full_pair_completion_1 +10000 wafer_to_full_pair_2_1
  <= +10000
 wafer_full_completion_lb_2_2: +1 wafer_completion_2 -1 full_pair_completion_2 -10000 wafer_to_full_pair_2_2
  >= -10000
 wafer_full_completion_ub_2_2: +1 wafer_completion_2 -1 full_pair_completion_2 +10000 wafer_to_full_pair_2_2
  <= +10000
 wafer_full_completion_lb_2_3: +1 wafer_completion_2 -1 full_pair_completion_3 -10000 wafer_to_full_pair_2_3
  >= -10000
 wafer_full_completion_ub_2_3: +1 wafer_completion_2 -1 full_pair_completion_3 +10000 wafer_to_full_pair_2_3
  <= +10000
 wafer_full_completion_lb_2_4: +1 wafer_completion_2 -1 full_pair_completion_4 -10000 wafer_to_full_pair_2_4
  >= -10000
 wafer_full_completion_ub_2_4: +1 wafer_completion_2 -1 full_pair_completion_4 +10000 wafer_to_full_pair_2_4
  <= +10000
 wafer_full_completion_lb_2_5: +1 wafer_completion_2 -1 full_pair_completion_5 -10000 wafer_to_full_pair_2_5
  >= -10000
 wafer_full_completion_ub_2_5: +1 wafer_completion_2 -1 full_pair_completion_5 +10000 wafer_to_full_pair_2_5
  <= +10000
 wafer_full_completion_lb_2_6: +1 wafer_completion_2 -1 full_pair_completion_6 -10000 wafer_to_full_pair_2_6
  >= -10000
 wafer_full_completion_ub_2_6: +1 wafer_completion_2 -1 full_pair_completion_6 +10000 wafer_to_full_pair_2_6
  <= +10000
 wafer_full_completion_lb_2_7: +1 wafer_completion_2 -1 full_pair_completion_7 -10000 wafer_to_full_pair_2_7
  >= -10000
 wafer_full_completion_ub_2_7: +1 wafer_completion_2 -1 full_pair_completion_7 +10000 wafer_to_full_pair_2_7
  <= +10000
 wafer_full_completion_lb_2_8: +1 wafer_completion_2 -1 full_pair_completion_8 -10000 wafer_to_full_pair_2_8
  >= -10000
 wafer_full_completion_ub_2_8: +1 wafer_completion_2 -1 full_pair_completion_8 +10000 wafer_to_full_pair_2_8
  <= +10000
 wafer_full_completion_lb_2_9: +1 wafer_completion_2 -1 full_pair_completion_9 -10000 wafer_to_full_pair_2_9
  >= -10000
 wafer_full_completion_ub_2_9: +1 wafer_completion_2 -1 full_pair_completion_9 +10000 wafer_to_full_pair_2_9
  <= +10000
 wafer_full_completion_lb_2_10: +1 wafer_completion_2 -1 full_pair_completion_10 -10000 wafer_to_full_pair_2_10
  >= -10000
 wafer_full_completion_ub_2_10: +1 wafer_completion_2 -1 full_pair_completion_10 +10000 wafer_to_full_pair_2_10
  <= +10000
 wafer_full_completion_lb_2_11: +1 wafer_completion_2 -1 full_pair_completion_11 -10000 wafer_to_full_pair_2_11
  >= -10000
 wafer_full_completion_ub_2_11: +1 wafer_completion_2 -1 full_pair_completion_11 +10000 wafer_to_full_pair_2_11
  <= +10000
 wafer_full_completion_lb_2_12: +1 wafer_completion_2 -1 full_pair_completion_12 -10000 wafer_to_full_pair_2_12
  >= -10000
 wafer_full_completion_ub_2_12: +1 wafer_completion_2 -1 full_pair_completion_12 +10000 wafer_to_full_pair_2_12
  <= +10000
 wafer_full_completion_lb_3_1: +1 wafer_completion_3 -1 full_pair_completion_1 -10000 wafer_to_full_pair_3_1
  >= -10000
 wafer_full_completion_ub_3_1: +1 wafer_completion_3 -1 full_pair_completion_1 +10000 wafer_to_full_pair_3_1
  <= +10000
 wafer_full_completion_lb_3_2: +1 wafer_completion_3 -1 full_pair_completion_2 -10000 wafer_to_full_pair_3_2
  >= -10000
 wafer_full_completion_ub_3_2: +1 wafer_completion_3 -1 full_pair_completion_2 +10000 wafer_to_full_pair_3_2
  <= +10000
 wafer_full_completion_lb_3_3: +1 wafer_completion_3 -1 full_pair_completion_3 -10000 wafer_to_full_pair_3_3
  >= -10000
 wafer_full_completion_ub_3_3: +1 wafer_completion_3 -1 full_pair_completion_3 +10000 wafer_to_full_pair_3_3
  <= +10000
 wafer_full_completion_lb_3_4: +1 wafer_completion_3 -1 full_pair_completion_4 -10000 wafer_to_full_pair_3_4
  >= -10000
 wafer_full_completion_ub_3_4: +1 wafer_completion_3 -1 full_pair_completion_4 +10000 wafer_to_full_pair_3_4
  <= +10000
 wafer_full_completion_lb_3_5: +1 wafer_completion_3 -1 full_pair_completion_5 -10000 wafer_to_full_pair_3_5
  >= -10000
 wafer_full_completion_ub_3_5: +1 wafer_completion_3 -1 full_pair_completion_5 +10000 wafer_to_full_pair_3_5
  <= +10000
 wafer_full_completion_lb_3_6: +1 wafer_completion_3 -1 full_pair_completion_6 -10000 wafer_to_full_pair_3_6
  >= -10000
 wafer_full_completion_ub_3_6: +1 wafer_completion_3 -1 full_pair_completion_6 +10000 wafer_to_full_pair_3_6
  <= +10000
 wafer_full_completion_lb_3_7: +1 wafer_completion_3 -1 full_pair_completion_7 -10000 wafer_to_full_pair_3_7
  >= -10000
 wafer_full_completion_ub_3_7: +1 wafer_completion_3 -1 full_pair_completion_7 +10000 wafer_to_full_pair_3_7
  <= +10000
 wafer_full_completion_lb_3_8: +1 wafer_completion_3 -1 full_pair_completion_8 -10000 wafer_to_full_pair_3_8
  >= -10000
 wafer_full_completion_ub_3_8: +1 wafer_completion_3 -1 full_pair_completion_8 +10000 wafer_to_full_pair_3_8
  <= +10000
 wafer_full_completion_lb_3_9: +1 wafer_completion_3 -1 full_pair_completion_9 -10000 wafer_to_full_pair_3_9
  >= -10000
 wafer_full_completion_ub_3_9: +1 wafer_completion_3 -1 full_pair_completion_9 +10000 wafer_to_full_pair_3_9
  <= +10000
 wafer_full_completion_lb_3_10: +1 wafer_completion_3 -1 full_pair_completion_10 -10000 wafer_to_full_pair_3_10
  >= -10000
 wafer_full_completion_ub_3_10: +1 wafer_completion_3 -1 full_pair_completion_10 +10000 wafer_to_full_pair_3_10
  <= +10000
 wafer_full_completion_lb_3_11: +1 wafer_completion_3 -1 full_pair_completion_11 -10000 wafer_to_full_pair_3_11
  >= -10000
 wafer_full_completion_ub_3_11: +1 wafer_completion_3 -1 full_pair_completion_11 +10000 wafer_to_full_pair_3_11
  <= +10000
 wafer_full_completion_lb_3_12: +1 wafer_completion_3 -1 full_pair_completion_12 -10000 wafer_to_full_pair_3_12
  >= -10000
 wafer_full_completion_ub_3_12: +1 wafer_completion_3 -1 full_pair_completion_12 +10000 wafer_to_full_pair_3_12
  <= +10000
 wafer_full_completion_lb_4_1: +1 wafer_completion_4 -1 full_pair_completion_1 -10000 wafer_to_full_pair_4_1
  >= -10000
 wafer_full_completion_ub_4_1: +1 wafer_completion_4 -1 full_pair_completion_1 +10000 wafer_to_full_pair_4_1
  <= +10000
 wafer_full_completion_lb_4_2: +1 wafer_completion_4 -1 full_pair_completion_2 -10000 wafer_to_full_pair_4_2
  >= -10000
 wafer_full_completion_ub_4_2: +1 wafer_completion_4 -1 full_pair_completion_2 +10000 wafer_to_full_pair_4_2
  <= +10000
 wafer_full_completion_lb_4_3: +1 wafer_completion_4 -1 full_pair_completion_3 -10000 wafer_to_full_pair_4_3
  >= -10000
 wafer_full_completion_ub_4_3: +1 wafer_completion_4 -1 full_pair_completion_3 +10000 wafer_to_full_pair_4_3
  <= +10000
 wafer_full_completion_lb_4_4: +1 wafer_completion_4 -1 full_pair_completion_4 -10000 wafer_to_full_pair_4_4
  >= -10000
 wafer_full_completion_ub_4_4: +1 wafer_completion_4 -1 full_pair_completion_4 +10000 wafer_to_full_pair_4_4
  <= +10000
 wafer_full_completion_lb_4_5: +1 wafer_completion_4 -1 full_pair_completion_5 -10000 wafer_to_full_pair_4_5
  >= -10000
 wafer_full_completion_ub_4_5: +1 wafer_completion_4 -1 full_pair_completion_5 +10000 wafer_to_full_pair_4_5
  <= +10000
 wafer_full_completion_lb_4_6: +1 wafer_completion_4 -1 full_pair_completion_6 -10000 wafer_to_full_pair_4_6
  >= -10000
 wafer_full_completion_ub_4_6: +1 wafer_completion_4 -1 full_pair_completion_6 +10000 wafer_to_full_pair_4_6
  <= +10000
 wafer_full_completion_lb_4_7: +1 wafer_completion_4 -1 full_pair_completion_7 -10000 wafer_to_full_pair_4_7
  >= -10000
 wafer_full_completion_ub_4_7: +1 wafer_completion_4 -1 full_pair_completion_7 +10000 wafer_to_full_pair_4_7
  <= +10000
 wafer_full_completion_lb_4_8: +1 wafer_completion_4 -1 full_pair_completion_8 -10000 wafer_to_full_pair_4_8
  >= -10000
 wafer_full_completion_ub_4_8: +1 wafer_completion_4 -1 full_pair_completion_8 +10000 wafer_to_full_pair_4_8
  <= +10000
 wafer_full_completion_lb_4_9: +1 wafer_completion_4 -1 full_pair_completion_9 -10000 wafer_to_full_pair_4_9
  >= -10000
 wafer_full_completion_ub_4_9: +1 wafer_completion_4 -1 full_pair_completion_9 +10000 wafer_to_full_pair_4_9
  <= +10000
 wafer_full_completion_lb_4_10: +1 wafer_completion_4 -1 full_pair_completion_10 -10000 wafer_to_full_pair_4_10
  >= -10000
 wafer_full_completion_ub_4_10: +1 wafer_completion_4 -1 full_pair_completion_10 +10000 wafer_to_full_pair_4_10
  <= +10000
 wafer_full_completion_lb_4_11: +1 wafer_completion_4 -1 full_pair_completion_11 -10000 wafer_to_full_pair_4_11
  >= -10000
 wafer_full_completion_ub_4_11: +1 wafer_completion_4 -1 full_pair_completion_11 +10000 wafer_to_full_pair_4_11
  <= +10000
 wafer_full_completion_lb_4_12: +1 wafer_completion_4 -1 full_pair_completion_12 -10000 wafer_to_full_pair_4_12
  >= -10000
 wafer_full_completion_ub_4_12: +1 wafer_completion_4 -1 full_pair_completion_12 +10000 wafer_to_full_pair_4_12
  <= +10000
 wafer_full_completion_lb_5_1: +1 wafer_completion_5 -1 full_pair_completion_1 -10000 wafer_to_full_pair_5_1
  >= -10000
 wafer_full_completion_ub_5_1: +1 wafer_completion_5 -1 full_pair_completion_1 +10000 wafer_to_full_pair_5_1
  <= +10000
 wafer_full_completion_lb_5_2: +1 wafer_completion_5 -1 full_pair_completion_2 -10000 wafer_to_full_pair_5_2
  >= -10000
 wafer_full_completion_ub_5_2: +1 wafer_completion_5 -1 full_pair_completion_2 +10000 wafer_to_full_pair_5_2
  <= +10000
 wafer_full_completion_lb_5_3: +1 wafer_completion_5 -1 full_pair_completion_3 -10000 wafer_to_full_pair_5_3
  >= -10000
 wafer_full_completion_ub_5_3: +1 wafer_completion_5 -1 full_pair_completion_3 +10000 wafer_to_full_pair_5_3
  <= +10000
 wafer_full_completion_lb_5_4: +1 wafer_completion_5 -1 full_pair_completion_4 -10000 wafer_to_full_pair_5_4
  >= -10000
 wafer_full_completion_ub_5_4: +1 wafer_completion_5 -1 full_pair_completion_4 +10000 wafer_to_full_pair_5_4
  <= +10000
 wafer_full_completion_lb_5_5: +1 wafer_completion_5 -1 full_pair_completion_5 -10000 wafer_to_full_pair_5_5
  >= -10000
 wafer_full_completion_ub_5_5: +1 wafer_completion_5 -1 full_pair_completion_5 +10000 wafer_to_full_pair_5_5
  <= +10000
 wafer_full_completion_lb_5_6: +1 wafer_completion_5 -1 full_pair_completion_6 -10000 wafer_to_full_pair_5_6
  >= -10000
 wafer_full_completion_ub_5_6: +1 wafer_completion_5 -1 full_pair_completion_6 +10000 wafer_to_full_pair_5_6
  <= +10000
 wafer_full_completion_lb_5_7: +1 wafer_completion_5 -1 full_pair_completion_7 -10000 wafer_to_full_pair_5_7
  >= -10000
 wafer_full_completion_ub_5_7: +1 wafer_completion_5 -1 full_pair_completion_7 +10000 wafer_to_full_pair_5_7
  <= +10000
 wafer_full_completion_lb_5_8: +1 wafer_completion_5 -1 full_pair_completion_8 -10000 wafer_to_full_pair_5_8
  >= -10000
 wafer_full_completion_ub_5_8: +1 wafer_completion_5 -1 full_pair_completion_8 +10000 wafer_to_full_pair_5_8
  <= +10000
 wafer_full_completion_lb_5_9: +1 wafer_completion_5 -1 full_pair_completion_9 -10000 wafer_to_full_pair_5_9
  >= -10000
 wafer_full_completion_ub_5_9: +1 wafer_completion_5 -1 full_pair_completion_9 +10000 wafer_to_full_pair_5_9
  <= +10000
 wafer_full_completion_lb_5_10: +1 wafer_completion_5 -1 full_pair_completion_10 -10000 wafer_to_full_pair_5_10
  >= -10000
 wafer_full_completion_ub_5_10: +1 wafer_completion_5 -1 full_pair_completion_10 +10000 wafer_to_full_pair_5_10
  <= +10000
 wafer_full_completion_lb_5_11: +1 wafer_completion_5 -1 full_pair_completion_11 -10000 wafer_to_full_pair_5_11
  >= -10000
 wafer_full_completion_ub_5_11: +1 wafer_completion_5 -1 full_pair_completion_11 +10000 wafer_to_full_pair_5_11
  <= +10000
 wafer_full_completion_lb_5_12: +1 wafer_completion_5 -1 full_pair_completion_12 -10000 wafer_to_full_pair_5_12
  >= -10000
 wafer_full_completion_ub_5_12: +1 wafer_completion_5 -1 full_pair_completion_12 +10000 wafer_to_full_pair_5_12
  <= +10000
 wafer_full_completion_lb_6_1: +1 wafer_completion_6 -1 full_pair_completion_1 -10000 wafer_to_full_pair_6_1
  >= -10000
 wafer_full_completion_ub_6_1: +1 wafer_completion_6 -1 full_pair_completion_1 +10000 wafer_to_full_pair_6_1
  <= +10000
 wafer_full_completion_lb_6_2: +1 wafer_completion_6 -1 full_pair_completion_2 -10000 wafer_to_full_pair_6_2
  >= -10000
 wafer_full_completion_ub_6_2: +1 wafer_completion_6 -1 full_pair_completion_2 +10000 wafer_to_full_pair_6_2
  <= +10000
 wafer_full_completion_lb_6_3: +1 wafer_completion_6 -1 full_pair_completion_3 -10000 wafer_to_full_pair_6_3
  >= -10000
 wafer_full_completion_ub_6_3: +1 wafer_completion_6 -1 full_pair_completion_3 +10000 wafer_to_full_pair_6_3
  <= +10000
 wafer_full_completion_lb_6_4: +1 wafer_completion_6 -1 full_pair_completion_4 -10000 wafer_to_full_pair_6_4
  >= -10000
 wafer_full_completion_ub_6_4: +1 wafer_completion_6 -1 full_pair_completion_4 +10000 wafer_to_full_pair_6_4
  <= +10000
 wafer_full_completion_lb_6_5: +1 wafer_completion_6 -1 full_pair_completion_5 -10000 wafer_to_full_pair_6_5
  >= -10000
 wafer_full_completion_ub_6_5: +1 wafer_completion_6 -1 full_pair_completion_5 +10000 wafer_to_full_pair_6_5
  <= +10000
 wafer_full_completion_lb_6_6: +1 wafer_completion_6 -1 full_pair_completion_6 -10000 wafer_to_full_pair_6_6
  >= -10000
 wafer_full_completion_ub_6_6: +1 wafer_completion_6 -1 full_pair_completion_6 +10000 wafer_to_full_pair_6_6
  <= +10000
 wafer_full_completion_lb_6_7: +1 wafer_completion_6 -1 full_pair_completion_7 -10000 wafer_to_full_pair_6_7
  >= -10000
 wafer_full_completion_ub_6_7: +1 wafer_completion_6 -1 full_pair_completion_7 +10000 wafer_to_full_pair_6_7
  <= +10000
 wafer_full_completion_lb_6_8: +1 wafer_completion_6 -1 full_pair_completion_8 -10000 wafer_to_full_pair_6_8
  >= -10000
 wafer_full_completion_ub_6_8: +1 wafer_completion_6 -1 full_pair_completion_8 +10000 wafer_to_full_pair_6_8
  <= +10000
 wafer_full_completion_lb_6_9: +1 wafer_completion_6 -1 full_pair_completion_9 -10000 wafer_to_full_pair_6_9
  >= -10000
 wafer_full_completion_ub_6_9: +1 wafer_completion_6 -1 full_pair_completion_9 +10000 wafer_to_full_pair_6_9
  <= +10000
 wafer_full_completion_lb_6_10: +1 wafer_completion_6 -1 full_pair_completion_10 -10000 wafer_to_full_pair_6_10
  >= -10000
 wafer_full_completion_ub_6_10: +1 wafer_completion_6 -1 full_pair_completion_10 +10000 wafer_to_full_pair_6_10
  <= +10000
 wafer_full_completion_lb_6_11: +1 wafer_completion_6 -1 full_pair_completion_11 -10000 wafer_to_full_pair_6_11
  >= -10000
 wafer_full_completion_ub_6_11: +1 wafer_completion_6 -1 full_pair_completion_11 +10000 wafer_to_full_pair_6_11
  <= +10000
 wafer_full_completion_lb_6_12: +1 wafer_completion_6 -1 full_pair_completion_12 -10000 wafer_to_full_pair_6_12
  >= -10000
 wafer_full_completion_ub_6_12: +1 wafer_completion_6 -1 full_pair_completion_12 +10000 wafer_to_full_pair_6_12
  <= +10000
 wafer_full_completion_lb_7_1: +1 wafer_completion_7 -1 full_pair_completion_1 -10000 wafer_to_full_pair_7_1
  >= -10000
 wafer_full_completion_ub_7_1: +1 wafer_completion_7 -1 full_pair_completion_1 +10000 wafer_to_full_pair_7_1
  <= +10000
 wafer_full_completion_lb_7_2: +1 wafer_completion_7 -1 full_pair_completion_2 -10000 wafer_to_full_pair_7_2
  >= -10000
 wafer_full_completion_ub_7_2: +1 wafer_completion_7 -1 full_pair_completion_2 +10000 wafer_to_full_pair_7_2
  <= +10000
 wafer_full_completion_lb_7_3: +1 wafer_completion_7 -1 full_pair_completion_3 -10000 wafer_to_full_pair_7_3
  >= -10000
 wafer_full_completion_ub_7_3: +1 wafer_completion_7 -1 full_pair_completion_3 +10000 wafer_to_full_pair_7_3
  <= +10000
 wafer_full_completion_lb_7_4: +1 wafer_completion_7 -1 full_pair_completion_4 -10000 wafer_to_full_pair_7_4
  >= -10000
 wafer_full_completion_ub_7_4: +1 wafer_completion_7 -1 full_pair_completion_4 +10000 wafer_to_full_pair_7_4
  <= +10000
 wafer_full_completion_lb_7_5: +1 wafer_completion_7 -1 full_pair_completion_5 -10000 wafer_to_full_pair_7_5
  >= -10000
 wafer_full_completion_ub_7_5: +1 wafer_completion_7 -1 full_pair_completion_5 +10000 wafer_to_full_pair_7_5
  <= +10000
 wafer_full_completion_lb_7_6: +1 wafer_completion_7 -1 full_pair_completion_6 -10000 wafer_to_full_pair_7_6
  >= -10000
 wafer_full_completion_ub_7_6: +1 wafer_completion_7 -1 full_pair_completion_6 +10000 wafer_to_full_pair_7_6
  <= +10000
 wafer_full_completion_lb_7_7: +1 wafer_completion_7 -1 full_pair_completion_7 -10000 wafer_to_full_pair_7_7
  >= -10000
 wafer_full_completion_ub_7_7: +1 wafer_completion_7 -1 full_pair_completion_7 +10000 wafer_to_full_pair_7_7
  <= +10000
 wafer_full_completion_lb_7_8: +1 wafer_completion_7 -1 full_pair_completion_8 -10000 wafer_to_full_pair_7_8
  >= -10000
 wafer_full_completion_ub_7_8: +1 wafer_completion_7 -1 full_pair_completion_8 +10000 wafer_to_full_pair_7_8
  <= +10000
 wafer_full_completion_lb_7_9: +1 wafer_completion_7 -1 full_pair_completion_9 -10000 wafer_to_full_pair_7_9
  >= -10000
 wafer_full_completion_ub_7_9: +1 wafer_completion_7 -1 full_pair_completion_9 +10000 wafer_to_full_pair_7_9
  <= +10000
 wafer_full_completion_lb_7_10: +1 wafer_completion_7 -1 full_pair_completion_10 -10000 wafer_to_full_pair_7_10
  >= -10000
 wafer_full_completion_ub_7_10: +1 wafer_completion_7 -1 full_pair_completion_10 +10000 wafer_to_full_pair_7_10
  <= +10000
 wafer_full_completion_lb_7_11: +1 wafer_completion_7 -1 full_pair_completion_11 -10000 wafer_to_full_pair_7_11
  >= -10000
 wafer_full_completion_ub_7_11: +1 wafer_completion_7 -1 full_pair_completion_11 +10000 wafer_to_full_pair_7_11
  <= +10000
 wafer_full_completion_lb_7_12: +1 wafer_completion_7 -1 full_pair_completion_12 -10000 wafer_to_full_pair_7_12
  >= -10000
 wafer_full_completion_ub_7_12: +1 wafer_completion_7 -1 full_pair_completion_12 +10000 wafer_to_full_pair_7_12
  <= +10000
 wafer_full_completion_lb_8_1: +1 wafer_completion_8 -1 full_pair_completion_1 -10000 wafer_to_full_pair_8_1
  >= -10000
 wafer_full_completion_ub_8_1: +1 wafer_completion_8 -1 full_pair_completion_1 +10000 wafer_to_full_pair_8_1
  <= +10000
 wafer_full_completion_lb_8_2: +1 wafer_completion_8 -1 full_pair_completion_2 -10000 wafer_to_full_pair_8_2
  >= -10000
 wafer_full_completion_ub_8_2: +1 wafer_completion_8 -1 full_pair_completion_2 +10000 wafer_to_full_pair_8_2
  <= +10000
 wafer_full_completion_lb_8_3: +1 wafer_completion_8 -1 full_pair_completion_3 -10000 wafer_to_full_pair_8_3
  >= -10000
 wafer_full_completion_ub_8_3: +1 wafer_completion_8 -1 full_pair_completion_3 +10000 wafer_to_full_pair_8_3
  <= +10000
 wafer_full_completion_lb_8_4: +1 wafer_completion_8 -1 full_pair_completion_4 -10000 wafer_to_full_pair_8_4
  >= -10000
 wafer_full_completion_ub_8_4: +1 wafer_completion_8 -1 full_pair_completion_4 +10000 wafer_to_full_pair_8_4
  <= +10000
 wafer_full_completion_lb_8_5: +1 wafer_completion_8 -1 full_pair_completion_5 -10000 wafer_to_full_pair_8_5
  >= -10000
 wafer_full_completion_ub_8_5: +1 wafer_completion_8 -1 full_pair_completion_5 +10000 wafer_to_full_pair_8_5
  <= +10000
 wafer_full_completion_lb_8_6: +1 wafer_completion_8 -1 full_pair_completion_6 -10000 wafer_to_full_pair_8_6
  >= -10000
 wafer_full_completion_ub_8_6: +1 wafer_completion_8 -1 full_pair_completion_6 +10000 wafer_to_full_pair_8_6
  <= +10000
 wafer_full_completion_lb_8_7: +1 wafer_completion_8 -1 full_pair_completion_7 -10000 wafer_to_full_pair_8_7
  >= -10000
 wafer_full_completion_ub_8_7: +1 wafer_completion_8 -1 full_pair_completion_7 +10000 wafer_to_full_pair_8_7
  <= +10000
 wafer_full_completion_lb_8_8: +1 wafer_completion_8 -1 full_pair_completion_8 -10000 wafer_to_full_pair_8_8
  >= -10000
 wafer_full_completion_ub_8_8: +1 wafer_completion_8 -1 full_pair_completion_8 +10000 wafer_to_full_pair_8_8
  <= +10000
 wafer_full_completion_lb_8_9: +1 wafer_completion_8 -1 full_pair_completion_9 -10000 wafer_to_full_pair_8_9
  >= -10000
 wafer_full_completion_ub_8_9: +1 wafer_completion_8 -1 full_pair_completion_9 +10000 wafer_to_full_pair_8_9
  <= +10000
 wafer_full_completion_lb_8_10: +1 wafer_completion_8 -1 full_pair_completion_10 -10000 wafer_to_full_pair_8_10
  >= -10000
 wafer_full_completion_ub_8_10: +1 wafer_completion_8 -1 full_pair_completion_10 +10000 wafer_to_full_pair_8_10
  <= +10000
 wafer_full_completion_lb_8_11: +1 wafer_completion_8 -1 full_pair_completion_11 -10000 wafer_to_full_pair_8_11
  >= -10000
 wafer_full_completion_ub_8_11: +1 wafer_completion_8 -1 full_pair_completion_11 +10000 wafer_to_full_pair_8_11
  <= +10000
 wafer_full_completion_lb_8_12: +1 wafer_completion_8 -1 full_pair_completion_12 -10000 wafer_to_full_pair_8_12
  >= -10000
 wafer_full_completion_ub_8_12: +1 wafer_completion_8 -1 full_pair_completion_12 +10000 wafer_to_full_pair_8_12
  <= +10000
 wafer_full_completion_lb_9_1: +1 wafer_completion_9 -1 full_pair_completion_1 -10000 wafer_to_full_pair_9_1
  >= -10000
 wafer_full_completion_ub_9_1: +1 wafer_completion_9 -1 full_pair_completion_1 +10000 wafer_to_full_pair_9_1
  <= +10000
 wafer_full_completion_lb_9_2: +1 wafer_completion_9 -1 full_pair_completion_2 -10000 wafer_to_full_pair_9_2
  >= -10000
 wafer_full_completion_ub_9_2: +1 wafer_completion_9 -1 full_pair_completion_2 +10000 wafer_to_full_pair_9_2
  <= +10000
 wafer_full_completion_lb_9_3: +1 wafer_completion_9 -1 full_pair_completion_3 -10000 wafer_to_full_pair_9_3
  >= -10000
 wafer_full_completion_ub_9_3: +1 wafer_completion_9 -1 full_pair_completion_3 +10000 wafer_to_full_pair_9_3
  <= +10000
 wafer_full_completion_lb_9_4: +1 wafer_completion_9 -1 full_pair_completion_4 -10000 wafer_to_full_pair_9_4
  >= -10000
 wafer_full_completion_ub_9_4: +1 wafer_completion_9 -1 full_pair_completion_4 +10000 wafer_to_full_pair_9_4
  <= +10000
 wafer_full_completion_lb_9_5: +1 wafer_completion_9 -1 full_pair_completion_5 -10000 wafer_to_full_pair_9_5
  >= -10000
 wafer_full_completion_ub_9_5: +1 wafer_completion_9 -1 full_pair_completion_5 +10000 wafer_to_full_pair_9_5
  <= +10000
 wafer_full_completion_lb_9_6: +1 wafer_completion_9 -1 full_pair_completion_6 -10000 wafer_to_full_pair_9_6
  >= -10000
 wafer_full_completion_ub_9_6: +1 wafer_completion_9 -1 full_pair_completion_6 +10000 wafer_to_full_pair_9_6
  <= +10000
 wafer_full_completion_lb_9_7: +1 wafer_completion_9 -1 full_pair_completion_7 -10000 wafer_to_full_pair_9_7
  >= -10000
 wafer_full_completion_ub_9_7: +1 wafer_completion_9 -1 full_pair_completion_7 +10000 wafer_to_full_pair_9_7
  <= +10000
 wafer_full_completion_lb_9_8: +1 wafer_completion_9 -1 full_pair_completion_8 -10000 wafer_to_full_pair_9_8
  >= -10000
 wafer_full_completion_ub_9_8: +1 wafer_completion_9 -1 full_pair_completion_8 +10000 wafer_to_full_pair_9_8
  <= +10000
 wafer_full_completion_lb_9_9: +1 wafer_completion_9 -1 full_pair_completion_9 -10000 wafer_to_full_pair_9_9
  >= -10000
 wafer_full_completion_ub_9_9: +1 wafer_completion_9 -1 full_pair_completion_9 +10000 wafer_to_full_pair_9_9
  <= +10000
 wafer_full_completion_lb_9_10: +1 wafer_completion_9 -1 full_pair_completion_10 -10000 wafer_to_full_pair_9_10
  >= -10000
 wafer_full_completion_ub_9_10: +1 wafer_completion_9 -1 full_pair_completion_10 +10000 wafer_to_full_pair_9_10
  <= +10000
 wafer_full_completion_lb_9_11: +1 wafer_completion_9 -1 full_pair_completion_11 -10000 wafer_to_full_pair_9_11
  >= -10000
 wafer_full_completion_ub_9_11: +1 wafer_completion_9 -1 full_pair_completion_11 +10000 wafer_to_full_pair_9_11
  <= +10000
 wafer_full_completion_lb_9_12: +1 wafer_completion_9 -1 full_pair_completion_12 -10000 wafer_to_full_pair_9_12
  >= -10000
 wafer_full_completion_ub_9_12: +1 wafer_completion_9 -1 full_pair_completion_12 +10000 wafer_to_full_pair_9_12
  <= +10000
 wafer_full_completion_lb_10_1: +1 wafer_completion_10 -1 full_pair_completion_1 -10000 wafer_to_full_pair_10_1
  >= -10000
 wafer_full_completion_ub_10_1: +1 wafer_completion_10 -1 full_pair_completion_1 +10000 wafer_to_full_pair_10_1
  <= +10000
 wafer_full_completion_lb_10_2: +1 wafer_completion_10 -1 full_pair_completion_2 -10000 wafer_to_full_pair_10_2
  >= -10000
 wafer_full_completion_ub_10_2: +1 wafer_completion_10 -1 full_pair_completion_2 +10000 wafer_to_full_pair_10_2
  <= +10000
 wafer_full_completion_lb_10_3: +1 wafer_completion_10 -1 full_pair_completion_3 -10000 wafer_to_full_pair_10_3
  >= -10000
 wafer_full_completion_ub_10_3: +1 wafer_completion_10 -1 full_pair_completion_3 +10000 wafer_to_full_pair_10_3
  <= +10000
 wafer_full_completion_lb_10_4: +1 wafer_completion_10 -1 full_pair_completion_4 -10000 wafer_to_full_pair_10_4
  >= -10000
 wafer_full_completion_ub_10_4: +1 wafer_completion_10 -1 full_pair_completion_4 +10000 wafer_to_full_pair_10_4
  <= +10000
 wafer_full_completion_lb_10_5: +1 wafer_completion_10 -1 full_pair_completion_5 -10000 wafer_to_full_pair_10_5
  >= -10000
 wafer_full_completion_ub_10_5: +1 wafer_completion_10 -1 full_pair_completion_5 +10000 wafer_to_full_pair_10_5
  <= +10000
 wafer_full_completion_lb_10_6: +1 wafer_completion_10 -1 full_pair_completion_6 -10000 wafer_to_full_pair_10_6
  >= -10000
 wafer_full_completion_ub_10_6: +1 wafer_completion_10 -1 full_pair_completion_6 +10000 wafer_to_full_pair_10_6
  <= +10000
 wafer_full_completion_lb_10_7: +1 wafer_completion_10 -1 full_pair_completion_7 -10000 wafer_to_full_pair_10_7
  >= -10000
 wafer_full_completion_ub_10_7: +1 wafer_completion_10 -1 full_pair_completion_7 +10000 wafer_to_full_pair_10_7
  <= +10000
 wafer_full_completion_lb_10_8: +1 wafer_completion_10 -1 full_pair_completion_8 -10000 wafer_to_full_pair_10_8
  >= -10000
 wafer_full_completion_ub_10_8: +1 wafer_completion_10 -1 full_pair_completion_8 +10000 wafer_to_full_pair_10_8
  <= +10000
 wafer_full_completion_lb_10_9: +1 wafer_completion_10 -1 full_pair_completion_9 -10000 wafer_to_full_pair_10_9
  >= -10000
 wafer_full_completion_ub_10_9: +1 wafer_completion_10 -1 full_pair_completion_9 +10000 wafer_to_full_pair_10_9
  <= +10000
 wafer_full_completion_lb_10_10: +1 wafer_completion_10 -1 full_pair_completion_10 -10000 wafer_to_full_pair_10_10
  >= -10000
 wafer_full_completion_ub_10_10: +1 wafer_completion_10 -1 full_pair_completion_10 +10000 wafer_to_full_pair_10_10
  <= +10000
 wafer_full_completion_lb_10_11: +1 wafer_completion_10 -1 full_pair_completion_11 -10000 wafer_to_full_pair_10_11
  >= -10000
 wafer_full_completion_ub_10_11: +1 wafer_completion_10 -1 full_pair_completion_11 +10000 wafer_to_full_pair_10_11
  <= +10000
 wafer_full_completion_lb_10_12: +1 wafer_completion_10 -1 full_pair_completion_12 -10000 wafer_to_full_pair_10_12
  >= -10000
 wafer_full_completion_ub_10_12: +1 wafer_completion_10 -1 full_pair_completion_12 +10000 wafer_to_full_pair_10_12
  <= +10000
 wafer_full_completion_lb_11_1: +1 wafer_completion_11 -1 full_pair_completion_1 -10000 wafer_to_full_pair_11_1
  >= -10000
 wafer_full_completion_ub_11_1: +1 wafer_completion_11 -1 full_pair_completion_1 +10000 wafer_to_full_pair_11_1
  <= +10000
 wafer_full_completion_lb_11_2: +1 wafer_completion_11 -1 full_pair_completion_2 -10000 wafer_to_full_pair_11_2
  >= -10000
 wafer_full_completion_ub_11_2: +1 wafer_completion_11 -1 full_pair_completion_2 +10000 wafer_to_full_pair_11_2
  <= +10000
 wafer_full_completion_lb_11_3: +1 wafer_completion_11 -1 full_pair_completion_3 -10000 wafer_to_full_pair_11_3
  >= -10000
 wafer_full_completion_ub_11_3: +1 wafer_completion_11 -1 full_pair_completion_3 +10000 wafer_to_full_pair_11_3
  <= +10000
 wafer_full_completion_lb_11_4: +1 wafer_completion_11 -1 full_pair_completion_4 -10000 wafer_to_full_pair_11_4
  >= -10000
 wafer_full_completion_ub_11_4: +1 wafer_completion_11 -1 full_pair_completion_4 +10000 wafer_to_full_pair_11_4
  <= +10000
 wafer_full_completion_lb_11_5: +1 wafer_completion_11 -1 full_pair_completion_5 -10000 wafer_to_full_pair_11_5
  >= -10000
 wafer_full_completion_ub_11_5: +1 wafer_completion_11 -1 full_pair_completion_5 +10000 wafer_to_full_pair_11_5
  <= +10000
 wafer_full_completion_lb_11_6: +1 wafer_completion_11 -1 full_pair_completion_6 -10000 wafer_to_full_pair_11_6
  >= -10000
 wafer_full_completion_ub_11_6: +1 wafer_completion_11 -1 full_pair_completion_6 +10000 wafer_to_full_pair_11_6
  <= +10000
 wafer_full_completion_lb_11_7: +1 wafer_completion_11 -1 full_pair_completion_7 -10000 wafer_to_full_pair_11_7
  >= -10000
 wafer_full_completion_ub_11_7: +1 wafer_completion_11 -1 full_pair_completion_7 +10000 wafer_to_full_pair_11_7
  <= +10000
 wafer_full_completion_lb_11_8: +1 wafer_completion_11 -1 full_pair_completion_8 -10000 wafer_to_full_pair_11_8
  >= -10000
 wafer_full_completion_ub_11_8: +1 wafer_completion_11 -1 full_pair_completion_8 +10000 wafer_to_full_pair_11_8
  <= +10000
 wafer_full_completion_lb_11_9: +1 wafer_completion_11 -1 full_pair_completion_9 -10000 wafer_to_full_pair_11_9
  >= -10000
 wafer_full_completion_ub_11_9: +1 wafer_completion_11 -1 full_pair_completion_9 +10000 wafer_to_full_pair_11_9
  <= +10000
 wafer_full_completion_lb_11_10: +1 wafer_completion_11 -1 full_pair_completion_10 -10000 wafer_to_full_pair_11_10
  >= -10000
 wafer_full_completion_ub_11_10: +1 wafer_completion_11 -1 full_pair_completion_10 +10000 wafer_to_full_pair_11_10
  <= +10000
 wafer_full_completion_lb_11_11: +1 wafer_completion_11 -1 full_pair_completion_11 -10000 wafer_to_full_pair_11_11
  >= -10000
 wafer_full_completion_ub_11_11: +1 wafer_completion_11 -1 full_pair_completion_11 +10000 wafer_to_full_pair_11_11
  <= +10000
 wafer_full_completion_lb_11_12: +1 wafer_completion_11 -1 full_pair_completion_12 -10000 wafer_to_full_pair_11_12
  >= -10000
 wafer_full_completion_ub_11_12: +1 wafer_completion_11 -1 full_pair_completion_12 +10000 wafer_to_full_pair_11_12
  <= +10000
 wafer_full_completion_lb_12_1: +1 wafer_completion_12 -1 full_pair_completion_1 -10000 wafer_to_full_pair_12_1
  >= -10000
 wafer_full_completion_ub_12_1: +1 wafer_completion_12 -1 full_pair_completion_1 +10000 wafer_to_full_pair_12_1
  <= +10000
 wafer_full_completion_lb_12_2: +1 wafer_completion_12 -1 full_pair_completion_2 -10000 wafer_to_full_pair_12_2
  >= -10000
 wafer_full_completion_ub_12_2: +1 wafer_completion_12 -1 full_pair_completion_2 +10000 wafer_to_full_pair_12_2
  <= +10000
 wafer_full_completion_lb_12_3: +1 wafer_completion_12 -1 full_pair_completion_3 -10000 wafer_to_full_pair_12_3
  >= -10000
 wafer_full_completion_ub_12_3: +1 wafer_completion_12 -1 full_pair_completion_3 +10000 wafer_to_full_pair_12_3
  <= +10000
 wafer_full_completion_lb_12_4: +1 wafer_completion_12 -1 full_pair_completion_4 -10000 wafer_to_full_pair_12_4
  >= -10000
 wafer_full_completion_ub_12_4: +1 wafer_completion_12 -1 full_pair_completion_4 +10000 wafer_to_full_pair_12_4
  <= +10000
 wafer_full_completion_lb_12_5: +1 wafer_completion_12 -1 full_pair_completion_5 -10000 wafer_to_full_pair_12_5
  >= -10000
 wafer_full_completion_ub_12_5: +1 wafer_completion_12 -1 full_pair_completion_5 +10000 wafer_to_full_pair_12_5
  <= +10000
 wafer_full_completion_lb_12_6: +1 wafer_completion_12 -1 full_pair_completion_6 -10000 wafer_to_full_pair_12_6
  >= -10000
 wafer_full_completion_ub_12_6: +1 wafer_completion_12 -1 full_pair_completion_6 +10000 wafer_to_full_pair_12_6
  <= +10000
 wafer_full_completion_lb_12_7: +1 wafer_completion_12 -1 full_pair_completion_7 -10000 wafer_to_full_pair_12_7
  >= -10000
 wafer_full_completion_ub_12_7: +1 wafer_completion_12 -1 full_pair_completion_7 +10000 wafer_to_full_pair_12_7
  <= +10000
 wafer_full_completion_lb_12_8: +1 wafer_completion_12 -1 full_pair_completion_8 -10000 wafer_to_full_pair_12_8
  >= -10000
 wafer_full_completion_ub_12_8: +1 wafer_completion_12 -1 full_pair_completion_8 +10000 wafer_to_full_pair_12_8
  <= +10000
 wafer_full_completion_lb_12_9: +1 wafer_completion_12 -1 full_pair_completion_9 -10000 wafer_to_full_pair_12_9
  >= -10000
 wafer_full_completion_ub_12_9: +1 wafer_completion_12 -1 full_pair_completion_9 +10000 wafer_to_full_pair_12_9
  <= +10000
 wafer_full_completion_lb_12_10: +1 wafer_completion_12 -1 full_pair_completion_10 -10000 wafer_to_full_pair_12_10
  >= -10000
 wafer_full_completion_ub_12_10: +1 wafer_completion_12 -1 full_pair_completion_10 +10000 wafer_to_full_pair_12_10
  <= +10000
 wafer_full_completion_lb_12_11: +1 wafer_completion_12 -1 full_pair_completion_11 -10000 wafer_to_full_pair_12_11
  >= -10000
 wafer_full_completion_ub_12_11: +1 wafer_completion_12 -1 full_pair_completion_11 +10000 wafer_to_full_pair_12_11
  <= +10000
 wafer_full_completion_lb_12_12: +1 wafer_completion_12 -1 full_pair_completion_12 -10000 wafer_to_full_pair_12_12
  >= -10000
 wafer_full_completion_ub_12_12: +1 wafer_completion_12 -1 full_pair_completion_12 +10000 wafer_to_full_pair_12_12
  <= +10000
 wafer_full_completion_lb_13_1: +1 wafer_completion_13 -1 full_pair_completion_1 -10000 wafer_to_full_pair_13_1
  >= -10000
 wafer_full_completion_ub_13_1: +1 wafer_completion_13 -1 full_pair_completion_1 +10000 wafer_to_full_pair_13_1
  <= +10000
 wafer_full_completion_lb_13_2: +1 wafer_completion_13 -1 full_pair_completion_2 -10000 wafer_to_full_pair_13_2
  >= -10000
 wafer_full_completion_ub_13_2: +1 wafer_completion_13 -1 full_pair_completion_2 +10000 wafer_to_full_pair_13_2
  <= +10000
 wafer_full_completion_lb_13_3: +1 wafer_completion_13 -1 full_pair_completion_3 -10000 wafer_to_full_pair_13_3
  >= -10000
 wafer_full_completion_ub_13_3: +1 wafer_completion_13 -1 full_pair_completion_3 +10000 wafer_to_full_pair_13_3
  <= +10000
 wafer_full_completion_lb_13_4: +1 wafer_completion_13 -1 full_pair_completion_4 -10000 wafer_to_full_pair_13_4
  >= -10000
 wafer_full_completion_ub_13_4: +1 wafer_completion_13 -1 full_pair_completion_4 +10000 wafer_to_full_pair_13_4
  <= +10000
 wafer_full_completion_lb_13_5: +1 wafer_completion_13 -1 full_pair_completion_5 -10000 wafer_to_full_pair_13_5
  >= -10000
 wafer_full_completion_ub_13_5: +1 wafer_completion_13 -1 full_pair_completion_5 +10000 wafer_to_full_pair_13_5
  <= +10000
 wafer_full_completion_lb_13_6: +1 wafer_completion_13 -1 full_pair_completion_6 -10000 wafer_to_full_pair_13_6
  >= -10000
 wafer_full_completion_ub_13_6: +1 wafer_completion_13 -1 full_pair_completion_6 +10000 wafer_to_full_pair_13_6
  <= +10000
 wafer_full_completion_lb_13_7: +1 wafer_completion_13 -1 full_pair_completion_7 -10000 wafer_to_full_pair_13_7
  >= -10000
 wafer_full_completion_ub_13_7: +1 wafer_completion_13 -1 full_pair_completion_7 +10000 wafer_to_full_pair_13_7
  <= +10000
 wafer_full_completion_lb_13_8: +1 wafer_completion_13 -1 full_pair_completion_8 -10000 wafer_to_full_pair_13_8
  >= -10000
 wafer_full_completion_ub_13_8: +1 wafer_completion_13 -1 full_pair_completion_8 +10000 wafer_to_full_pair_13_8
  <= +10000
 wafer_full_completion_lb_13_9: +1 wafer_completion_13 -1 full_pair_completion_9 -10000 wafer_to_full_pair_13_9
  >= -10000
 wafer_full_completion_ub_13_9: +1 wafer_completion_13 -1 full_pair_completion_9 +10000 wafer_to_full_pair_13_9
  <= +10000
 wafer_full_completion_lb_13_10: +1 wafer_completion_13 -1 full_pair_completion_10 -10000 wafer_to_full_pair_13_10
  >= -10000
 wafer_full_completion_ub_13_10: +1 wafer_completion_13 -1 full_pair_completion_10 +10000 wafer_to_full_pair_13_10
  <= +10000
 wafer_full_completion_lb_13_11: +1 wafer_completion_13 -1 full_pair_completion_11 -10000 wafer_to_full_pair_13_11
  >= -10000
 wafer_full_completion_ub_13_11: +1 wafer_completion_13 -1 full_pair_completion_11 +10000 wafer_to_full_pair_13_11
  <= +10000
 wafer_full_completion_lb_13_12: +1 wafer_completion_13 -1 full_pair_completion_12 -10000 wafer_to_full_pair_13_12
  >= -10000
 wafer_full_completion_ub_13_12: +1 wafer_completion_13 -1 full_pair_completion_12 +10000 wafer_to_full_pair_13_12
  <= +10000
 wafer_full_completion_lb_14_1: +1 wafer_completion_14 -1 full_pair_completion_1 -10000 wafer_to_full_pair_14_1
  >= -10000
 wafer_full_completion_ub_14_1: +1 wafer_completion_14 -1 full_pair_completion_1 +10000 wafer_to_full_pair_14_1
  <= +10000
 wafer_full_completion_lb_14_2: +1 wafer_completion_14 -1 full_pair_completion_2 -10000 wafer_to_full_pair_14_2
  >= -10000
 wafer_full_completion_ub_14_2: +1 wafer_completion_14 -1 full_pair_completion_2 +10000 wafer_to_full_pair_14_2
  <= +10000
 wafer_full_completion_lb_14_3: +1 wafer_completion_14 -1 full_pair_completion_3 -10000 wafer_to_full_pair_14_3
  >= -10000
 wafer_full_completion_ub_14_3: +1 wafer_completion_14 -1 full_pair_completion_3 +10000 wafer_to_full_pair_14_3
  <= +10000
 wafer_full_completion_lb_14_4: +1 wafer_completion_14 -1 full_pair_completion_4 -10000 wafer_to_full_pair_14_4
  >= -10000
 wafer_full_completion_ub_14_4: +1 wafer_completion_14 -1 full_pair_completion_4 +10000 wafer_to_full_pair_14_4
  <= +10000
 wafer_full_completion_lb_14_5: +1 wafer_completion_14 -1 full_pair_completion_5 -10000 wafer_to_full_pair_14_5
  >= -10000
 wafer_full_completion_ub_14_5: +1 wafer_completion_14 -1 full_pair_completion_5 +10000 wafer_to_full_pair_14_5
  <= +10000
 wafer_full_completion_lb_14_6: +1 wafer_completion_14 -1 full_pair_completion_6 -10000 wafer_to_full_pair_14_6
  >= -10000
 wafer_full_completion_ub_14_6: +1 wafer_completion_14 -1 full_pair_completion_6 +10000 wafer_to_full_pair_14_6
  <= +10000
 wafer_full_completion_lb_14_7: +1 wafer_completion_14 -1 full_pair_completion_7 -10000 wafer_to_full_pair_14_7
  >= -10000
 wafer_full_completion_ub_14_7: +1 wafer_completion_14 -1 full_pair_completion_7 +10000 wafer_to_full_pair_14_7
  <= +10000
 wafer_full_completion_lb_14_8: +1 wafer_completion_14 -1 full_pair_completion_8 -10000 wafer_to_full_pair_14_8
  >= -10000
 wafer_full_completion_ub_14_8: +1 wafer_completion_14 -1 full_pair_completion_8 +10000 wafer_to_full_pair_14_8
  <= +10000
 wafer_full_completion_lb_14_9: +1 wafer_completion_14 -1 full_pair_completion_9 -10000 wafer_to_full_pair_14_9
  >= -10000
 wafer_full_completion_ub_14_9: +1 wafer_completion_14 -1 full_pair_completion_9 +10000 wafer_to_full_pair_14_9
  <= +10000
 wafer_full_completion_lb_14_10: +1 wafer_completion_14 -1 full_pair_completion_10 -10000 wafer_to_full_pair_14_10
  >= -10000
 wafer_full_completion_ub_14_10: +1 wafer_completion_14 -1 full_pair_completion_10 +10000 wafer_to_full_pair_14_10
  <= +10000
 wafer_full_completion_lb_14_11: +1 wafer_completion_14 -1 full_pair_completion_11 -10000 wafer_to_full_pair_14_11
  >= -10000
 wafer_full_completion_ub_14_11: +1 wafer_completion_14 -1 full_pair_completion_11 +10000 wafer_to_full_pair_14_11
  <= +10000
 wafer_full_completion_lb_14_12: +1 wafer_completion_14 -1 full_pair_completion_12 -10000 wafer_to_full_pair_14_12
  >= -10000
 wafer_full_completion_ub_14_12: +1 wafer_completion_14 -1 full_pair_completion_12 +10000 wafer_to_full_pair_14_12
  <= +10000
 wafer_full_completion_lb_15_1: +1 wafer_completion_15 -1 full_pair_completion_1 -10000 wafer_to_full_pair_15_1
  >= -10000
 wafer_full_completion_ub_15_1: +1 wafer_completion_15 -1 full_pair_completion_1 +10000 wafer_to_full_pair_15_1
  <= +10000
 wafer_full_completion_lb_15_2: +1 wafer_completion_15 -1 full_pair_completion_2 -10000 wafer_to_full_pair_15_2
  >= -10000
 wafer_full_completion_ub_15_2: +1 wafer_completion_15 -1 full_pair_completion_2 +10000 wafer_to_full_pair_15_2
  <= +10000
 wafer_full_completion_lb_15_3: +1 wafer_completion_15 -1 full_pair_completion_3 -10000 wafer_to_full_pair_15_3
  >= -10000
 wafer_full_completion_ub_15_3: +1 wafer_completion_15 -1 full_pair_completion_3 +10000 wafer_to_full_pair_15_3
  <= +10000
 wafer_full_completion_lb_15_4: +1 wafer_completion_15 -1 full_pair_completion_4 -10000 wafer_to_full_pair_15_4
  >= -10000
 wafer_full_completion_ub_15_4: +1 wafer_completion_15 -1 full_pair_completion_4 +10000 wafer_to_full_pair_15_4
  <= +10000
 wafer_full_completion_lb_15_5: +1 wafer_completion_15 -1 full_pair_completion_5 -10000 wafer_to_full_pair_15_5
  >= -10000
 wafer_full_completion_ub_15_5: +1 wafer_completion_15 -1 full_pair_completion_5 +10000 wafer_to_full_pair_15_5
  <= +10000
 wafer_full_completion_lb_15_6: +1 wafer_completion_15 -1 full_pair_completion_6 -10000 wafer_to_full_pair_15_6
  >= -10000
 wafer_full_completion_ub_15_6: +1 wafer_completion_15 -1 full_pair_completion_6 +10000 wafer_to_full_pair_15_6
  <= +10000
 wafer_full_completion_lb_15_7: +1 wafer_completion_15 -1 full_pair_completion_7 -10000 wafer_to_full_pair_15_7
  >= -10000
 wafer_full_completion_ub_15_7: +1 wafer_completion_15 -1 full_pair_completion_7 +10000 wafer_to_full_pair_15_7
  <= +10000
 wafer_full_completion_lb_15_8: +1 wafer_completion_15 -1 full_pair_completion_8 -10000 wafer_to_full_pair_15_8
  >= -10000
 wafer_full_completion_ub_15_8: +1 wafer_completion_15 -1 full_pair_completion_8 +10000 wafer_to_full_pair_15_8
  <= +10000
 wafer_full_completion_lb_15_9: +1 wafer_completion_15 -1 full_pair_completion_9 -10000 wafer_to_full_pair_15_9
  >= -10000
 wafer_full_completion_ub_15_9: +1 wafer_completion_15 -1 full_pair_completion_9 +10000 wafer_to_full_pair_15_9
  <= +10000
 wafer_full_completion_lb_15_10: +1 wafer_completion_15 -1 full_pair_completion_10 -10000 wafer_to_full_pair_15_10
  >= -10000
 wafer_full_completion_ub_15_10: +1 wafer_completion_15 -1 full_pair_completion_10 +10000 wafer_to_full_pair_15_10
  <= +10000
 wafer_full_completion_lb_15_11: +1 wafer_completion_15 -1 full_pair_completion_11 -10000 wafer_to_full_pair_15_11
  >= -10000
 wafer_full_completion_ub_15_11: +1 wafer_completion_15 -1 full_pair_completion_11 +10000 wafer_to_full_pair_15_11
  <= +10000
 wafer_full_completion_lb_15_12: +1 wafer_completion_15 -1 full_pair_completion_12 -10000 wafer_to_full_pair_15_12
  >= -10000
 wafer_full_completion_ub_15_12: +1 wafer_completion_15 -1 full_pair_completion_12 +10000 wafer_to_full_pair_15_12
  <= +10000
 wafer_full_completion_lb_16_1: +1 wafer_completion_16 -1 full_pair_completion_1 -10000 wafer_to_full_pair_16_1
  >= -10000
 wafer_full_completion_ub_16_1: +1 wafer_completion_16 -1 full_pair_completion_1 +10000 wafer_to_full_pair_16_1
  <= +10000
 wafer_full_completion_lb_16_2: +1 wafer_completion_16 -1 full_pair_completion_2 -10000 wafer_to_full_pair_16_2
  >= -10000
 wafer_full_completion_ub_16_2: +1 wafer_completion_16 -1 full_pair_completion_2 +10000 wafer_to_full_pair_16_2
  <= +10000
 wafer_full_completion_lb_16_3: +1 wafer_completion_16 -1 full_pair_completion_3 -10000 wafer_to_full_pair_16_3
  >= -10000
 wafer_full_completion_ub_16_3: +1 wafer_completion_16 -1 full_pair_completion_3 +10000 wafer_to_full_pair_16_3
  <= +10000
 wafer_full_completion_lb_16_4: +1 wafer_completion_16 -1 full_pair_completion_4 -10000 wafer_to_full_pair_16_4
  >= -10000
 wafer_full_completion_ub_16_4: +1 wafer_completion_16 -1 full_pair_completion_4 +10000 wafer_to_full_pair_16_4
  <= +10000
 wafer_full_completion_lb_16_5: +1 wafer_completion_16 -1 full_pair_completion_5 -10000 wafer_to_full_pair_16_5
  >= -10000
 wafer_full_completion_ub_16_5: +1 wafer_completion_16 -1 full_pair_completion_5 +10000 wafer_to_full_pair_16_5
  <= +10000
 wafer_full_completion_lb_16_6: +1 wafer_completion_16 -1 full_pair_completion_6 -10000 wafer_to_full_pair_16_6
  >= -10000
 wafer_full_completion_ub_16_6: +1 wafer_completion_16 -1 full_pair_completion_6 +10000 wafer_to_full_pair_16_6
  <= +10000
 wafer_full_completion_lb_16_7: +1 wafer_completion_16 -1 full_pair_completion_7 -10000 wafer_to_full_pair_16_7
  >= -10000
 wafer_full_completion_ub_16_7: +1 wafer_completion_16 -1 full_pair_completion_7 +10000 wafer_to_full_pair_16_7
  <= +10000
 wafer_full_completion_lb_16_8: +1 wafer_completion_16 -1 full_pair_completion_8 -10000 wafer_to_full_pair_16_8
  >= -10000
 wafer_full_completion_ub_16_8: +1 wafer_completion_16 -1 full_pair_completion_8 +10000 wafer_to_full_pair_16_8
  <= +10000
 wafer_full_completion_lb_16_9: +1 wafer_completion_16 -1 full_pair_completion_9 -10000 wafer_to_full_pair_16_9
  >= -10000
 wafer_full_completion_ub_16_9: +1 wafer_completion_16 -1 full_pair_completion_9 +10000 wafer_to_full_pair_16_9
  <= +10000
 wafer_full_completion_lb_16_10: +1 wafer_completion_16 -1 full_pair_completion_10 -10000 wafer_to_full_pair_16_10
  >= -10000
 wafer_full_completion_ub_16_10: +1 wafer_completion_16 -1 full_pair_completion_10 +10000 wafer_to_full_pair_16_10
  <= +10000
 wafer_full_completion_lb_16_11: +1 wafer_completion_16 -1 full_pair_completion_11 -10000 wafer_to_full_pair_16_11
  >= -10000
 wafer_full_completion_ub_16_11: +1 wafer_completion_16 -1 full_pair_completion_11 +10000 wafer_to_full_pair_16_11
  <= +10000
 wafer_full_completion_lb_16_12: +1 wafer_completion_16 -1 full_pair_completion_12 -10000 wafer_to_full_pair_16_12
  >= -10000
 wafer_full_completion_ub_16_12: +1 wafer_completion_16 -1 full_pair_completion_12 +10000 wafer_to_full_pair_16_12
  <= +10000
 wafer_full_completion_lb_17_1: +1 wafer_completion_17 -1 full_pair_completion_1 -10000 wafer_to_full_pair_17_1
  >= -10000
 wafer_full_completion_ub_17_1: +1 wafer_completion_17 -1 full_pair_completion_1 +10000 wafer_to_full_pair_17_1
  <= +10000
 wafer_full_completion_lb_17_2: +1 wafer_completion_17 -1 full_pair_completion_2 -10000 wafer_to_full_pair_17_2
  >= -10000
 wafer_full_completion_ub_17_2: +1 wafer_completion_17 -1 full_pair_completion_2 +10000 wafer_to_full_pair_17_2
  <= +10000
 wafer_full_completion_lb_17_3: +1 wafer_completion_17 -1 full_pair_completion_3 -10000 wafer_to_full_pair_17_3
  >= -10000
 wafer_full_completion_ub_17_3: +1 wafer_completion_17 -1 full_pair_completion_3 +10000 wafer_to_full_pair_17_3
  <= +10000
 wafer_full_completion_lb_17_4: +1 wafer_completion_17 -1 full_pair_completion_4 -10000 wafer_to_full_pair_17_4
  >= -10000
 wafer_full_completion_ub_17_4: +1 wafer_completion_17 -1 full_pair_completion_4 +10000 wafer_to_full_pair_17_4
  <= +10000
 wafer_full_completion_lb_17_5: +1 wafer_completion_17 -1 full_pair_completion_5 -10000 wafer_to_full_pair_17_5
  >= -10000
 wafer_full_completion_ub_17_5: +1 wafer_completion_17 -1 full_pair_completion_5 +10000 wafer_to_full_pair_17_5
  <= +10000
 wafer_full_completion_lb_17_6: +1 wafer_completion_17 -1 full_pair_completion_6 -10000 wafer_to_full_pair_17_6
  >= -10000
 wafer_full_completion_ub_17_6: +1 wafer_completion_17 -1 full_pair_completion_6 +10000 wafer_to_full_pair_17_6
  <= +10000
 wafer_full_completion_lb_17_7: +1 wafer_completion_17 -1 full_pair_completion_7 -10000 wafer_to_full_pair_17_7
  >= -10000
 wafer_full_completion_ub_17_7: +1 wafer_completion_17 -1 full_pair_completion_7 +10000 wafer_to_full_pair_17_7
  <= +10000
 wafer_full_completion_lb_17_8: +1 wafer_completion_17 -1 full_pair_completion_8 -10000 wafer_to_full_pair_17_8
  >= -10000
 wafer_full_completion_ub_17_8: +1 wafer_completion_17 -1 full_pair_completion_8 +10000 wafer_to_full_pair_17_8
  <= +10000
 wafer_full_completion_lb_17_9: +1 wafer_completion_17 -1 full_pair_completion_9 -10000 wafer_to_full_pair_17_9
  >= -10000
 wafer_full_completion_ub_17_9: +1 wafer_completion_17 -1 full_pair_completion_9 +10000 wafer_to_full_pair_17_9
  <= +10000
 wafer_full_completion_lb_17_10: +1 wafer_completion_17 -1 full_pair_completion_10 -10000 wafer_to_full_pair_17_10
  >= -10000
 wafer_full_completion_ub_17_10: +1 wafer_completion_17 -1 full_pair_completion_10 +10000 wafer_to_full_pair_17_10
  <= +10000
 wafer_full_completion_lb_17_11: +1 wafer_completion_17 -1 full_pair_completion_11 -10000 wafer_to_full_pair_17_11
  >= -10000
 wafer_full_completion_ub_17_11: +1 wafer_completion_17 -1 full_pair_completion_11 +10000 wafer_to_full_pair_17_11
  <= +10000
 wafer_full_completion_lb_17_12: +1 wafer_completion_17 -1 full_pair_completion_12 -10000 wafer_to_full_pair_17_12
  >= -10000
 wafer_full_completion_ub_17_12: +1 wafer_completion_17 -1 full_pair_completion_12 +10000 wafer_to_full_pair_17_12
  <= +10000
 wafer_full_completion_lb_18_1: +1 wafer_completion_18 -1 full_pair_completion_1 -10000 wafer_to_full_pair_18_1
  >= -10000
 wafer_full_completion_ub_18_1: +1 wafer_completion_18 -1 full_pair_completion_1 +10000 wafer_to_full_pair_18_1
  <= +10000
 wafer_full_completion_lb_18_2: +1 wafer_completion_18 -1 full_pair_completion_2 -10000 wafer_to_full_pair_18_2
  >= -10000
 wafer_full_completion_ub_18_2: +1 wafer_completion_18 -1 full_pair_completion_2 +10000 wafer_to_full_pair_18_2
  <= +10000
 wafer_full_completion_lb_18_3: +1 wafer_completion_18 -1 full_pair_completion_3 -10000 wafer_to_full_pair_18_3
  >= -10000
 wafer_full_completion_ub_18_3: +1 wafer_completion_18 -1 full_pair_completion_3 +10000 wafer_to_full_pair_18_3
  <= +10000
 wafer_full_completion_lb_18_4: +1 wafer_completion_18 -1 full_pair_completion_4 -10000 wafer_to_full_pair_18_4
  >= -10000
 wafer_full_completion_ub_18_4: +1 wafer_completion_18 -1 full_pair_completion_4 +10000 wafer_to_full_pair_18_4
  <= +10000
 wafer_full_completion_lb_18_5: +1 wafer_completion_18 -1 full_pair_completion_5 -10000 wafer_to_full_pair_18_5
  >= -10000
 wafer_full_completion_ub_18_5: +1 wafer_completion_18 -1 full_pair_completion_5 +10000 wafer_to_full_pair_18_5
  <= +10000
 wafer_full_completion_lb_18_6: +1 wafer_completion_18 -1 full_pair_completion_6 -10000 wafer_to_full_pair_18_6
  >= -10000
 wafer_full_completion_ub_18_6: +1 wafer_completion_18 -1 full_pair_completion_6 +10000 wafer_to_full_pair_18_6
  <= +10000
 wafer_full_completion_lb_18_7: +1 wafer_completion_18 -1 full_pair_completion_7 -10000 wafer_to_full_pair_18_7
  >= -10000
 wafer_full_completion_ub_18_7: +1 wafer_completion_18 -1 full_pair_completion_7 +10000 wafer_to_full_pair_18_7
  <= +10000
 wafer_full_completion_lb_18_8: +1 wafer_completion_18 -1 full_pair_completion_8 -10000 wafer_to_full_pair_18_8
  >= -10000
 wafer_full_completion_ub_18_8: +1 wafer_completion_18 -1 full_pair_completion_8 +10000 wafer_to_full_pair_18_8
  <= +10000
 wafer_full_completion_lb_18_9: +1 wafer_completion_18 -1 full_pair_completion_9 -10000 wafer_to_full_pair_18_9
  >= -10000
 wafer_full_completion_ub_18_9: +1 wafer_completion_18 -1 full_pair_completion_9 +10000 wafer_to_full_pair_18_9
  <= +10000
 wafer_full_completion_lb_18_10: +1 wafer_completion_18 -1 full_pair_completion_10 -10000 wafer_to_full_pair_18_10
  >= -10000
 wafer_full_completion_ub_18_10: +1 wafer_completion_18 -1 full_pair_completion_10 +10000 wafer_to_full_pair_18_10
  <= +10000
 wafer_full_completion_lb_18_11: +1 wafer_completion_18 -1 full_pair_completion_11 -10000 wafer_to_full_pair_18_11
  >= -10000
 wafer_full_completion_ub_18_11: +1 wafer_completion_18 -1 full_pair_completion_11 +10000 wafer_to_full_pair_18_11
  <= +10000
 wafer_full_completion_lb_18_12: +1 wafer_completion_18 -1 full_pair_completion_12 -10000 wafer_to_full_pair_18_12
  >= -10000
 wafer_full_completion_ub_18_12: +1 wafer_completion_18 -1 full_pair_completion_12 +10000 wafer_to_full_pair_18_12
  <= +10000
 wafer_full_completion_lb_19_1: +1 wafer_completion_19 -1 full_pair_completion_1 -10000 wafer_to_full_pair_19_1
  >= -10000
 wafer_full_completion_ub_19_1: +1 wafer_completion_19 -1 full_pair_completion_1 +10000 wafer_to_full_pair_19_1
  <= +10000
 wafer_full_completion_lb_19_2: +1 wafer_completion_19 -1 full_pair_completion_2 -10000 wafer_to_full_pair_19_2
  >= -10000
 wafer_full_completion_ub_19_2: +1 wafer_completion_19 -1 full_pair_completion_2 +10000 wafer_to_full_pair_19_2
  <= +10000
 wafer_full_completion_lb_19_3: +1 wafer_completion_19 -1 full_pair_completion_3 -10000 wafer_to_full_pair_19_3
  >= -10000
 wafer_full_completion_ub_19_3: +1 wafer_completion_19 -1 full_pair_completion_3 +10000 wafer_to_full_pair_19_3
  <= +10000
 wafer_full_completion_lb_19_4: +1 wafer_completion_19 -1 full_pair_completion_4 -10000 wafer_to_full_pair_19_4
  >= -10000
 wafer_full_completion_ub_19_4: +1 wafer_completion_19 -1 full_pair_completion_4 +10000 wafer_to_full_pair_19_4
  <= +10000
 wafer_full_completion_lb_19_5: +1 wafer_completion_19 -1 full_pair_completion_5 -10000 wafer_to_full_pair_19_5
  >= -10000
 wafer_full_completion_ub_19_5: +1 wafer_completion_19 -1 full_pair_completion_5 +10000 wafer_to_full_pair_19_5
  <= +10000
 wafer_full_completion_lb_19_6: +1 wafer_completion_19 -1 full_pair_completion_6 -10000 wafer_to_full_pair_19_6
  >= -10000
 wafer_full_completion_ub_19_6: +1 wafer_completion_19 -1 full_pair_completion_6 +10000 wafer_to_full_pair_19_6
  <= +10000
 wafer_full_completion_lb_19_7: +1 wafer_completion_19 -1 full_pair_completion_7 -10000 wafer_to_full_pair_19_7
  >= -10000
 wafer_full_completion_ub_19_7: +1 wafer_completion_19 -1 full_pair_completion_7 +10000 wafer_to_full_pair_19_7
  <= +10000
 wafer_full_completion_lb_19_8: +1 wafer_completion_19 -1 full_pair_completion_8 -10000 wafer_to_full_pair_19_8
  >= -10000
 wafer_full_completion_ub_19_8: +1 wafer_completion_19 -1 full_pair_completion_8 +10000 wafer_to_full_pair_19_8
  <= +10000
 wafer_full_completion_lb_19_9: +1 wafer_completion_19 -1 full_pair_completion_9 -10000 wafer_to_full_pair_19_9
  >= -10000
 wafer_full_completion_ub_19_9: +1 wafer_completion_19 -1 full_pair_completion_9 +10000 wafer_to_full_pair_19_9
  <= +10000
 wafer_full_completion_lb_19_10: +1 wafer_completion_19 -1 full_pair_completion_10 -10000 wafer_to_full_pair_19_10
  >= -10000
 wafer_full_completion_ub_19_10: +1 wafer_completion_19 -1 full_pair_completion_10 +10000 wafer_to_full_pair_19_10
  <= +10000
 wafer_full_completion_lb_19_11: +1 wafer_completion_19 -1 full_pair_completion_11 -10000 wafer_to_full_pair_19_11
  >= -10000
 wafer_full_completion_ub_19_11: +1 wafer_completion_19 -1 full_pair_completion_11 +10000 wafer_to_full_pair_19_11
  <= +10000
 wafer_full_completion_lb_19_12: +1 wafer_completion_19 -1 full_pair_completion_12 -10000 wafer_to_full_pair_19_12
  >= -10000
 wafer_full_completion_ub_19_12: +1 wafer_completion_19 -1 full_pair_completion_12 +10000 wafer_to_full_pair_19_12
  <= +10000
 wafer_full_completion_lb_20_1: +1 wafer_completion_20 -1 full_pair_completion_1 -10000 wafer_to_full_pair_20_1
  >= -10000
 wafer_full_completion_ub_20_1: +1 wafer_completion_20 -1 full_pair_completion_1 +10000 wafer_to_full_pair_20_1
  <= +10000
 wafer_full_completion_lb_20_2: +1 wafer_completion_20 -1 full_pair_completion_2 -10000 wafer_to_full_pair_20_2
  >= -10000
 wafer_full_completion_ub_20_2: +1 wafer_completion_20 -1 full_pair_completion_2 +10000 wafer_to_full_pair_20_2
  <= +10000
 wafer_full_completion_lb_20_3: +1 wafer_completion_20 -1 full_pair_completion_3 -10000 wafer_to_full_pair_20_3
  >= -10000
 wafer_full_completion_ub_20_3: +1 wafer_completion_20 -1 full_pair_completion_3 +10000 wafer_to_full_pair_20_3
  <= +10000
 wafer_full_completion_lb_20_4: +1 wafer_completion_20 -1 full_pair_completion_4 -10000 wafer_to_full_pair_20_4
  >= -10000
 wafer_full_completion_ub_20_4: +1 wafer_completion_20 -1 full_pair_completion_4 +10000 wafer_to_full_pair_20_4
  <= +10000
 wafer_full_completion_lb_20_5: +1 wafer_completion_20 -1 full_pair_completion_5 -10000 wafer_to_full_pair_20_5
  >= -10000
 wafer_full_completion_ub_20_5: +1 wafer_completion_20 -1 full_pair_completion_5 +10000 wafer_to_full_pair_20_5
  <= +10000
 wafer_full_completion_lb_20_6: +1 wafer_completion_20 -1 full_pair_completion_6 -10000 wafer_to_full_pair_20_6
  >= -10000
 wafer_full_completion_ub_20_6: +1 wafer_completion_20 -1 full_pair_completion_6 +10000 wafer_to_full_pair_20_6
  <= +10000
 wafer_full_completion_lb_20_7: +1 wafer_completion_20 -1 full_pair_completion_7 -10000 wafer_to_full_pair_20_7
  >= -10000
 wafer_full_completion_ub_20_7: +1 wafer_completion_20 -1 full_pair_completion_7 +10000 wafer_to_full_pair_20_7
  <= +10000
 wafer_full_completion_lb_20_8: +1 wafer_completion_20 -1 full_pair_completion_8 -10000 wafer_to_full_pair_20_8
  >= -10000
 wafer_full_completion_ub_20_8: +1 wafer_completion_20 -1 full_pair_completion_8 +10000 wafer_to_full_pair_20_8
  <= +10000
 wafer_full_completion_lb_20_9: +1 wafer_completion_20 -1 full_pair_completion_9 -10000 wafer_to_full_pair_20_9
  >= -10000
 wafer_full_completion_ub_20_9: +1 wafer_completion_20 -1 full_pair_completion_9 +10000 wafer_to_full_pair_20_9
  <= +10000
 wafer_full_completion_lb_20_10: +1 wafer_completion_20 -1 full_pair_completion_10 -10000 wafer_to_full_pair_20_10
  >= -10000
 wafer_full_completion_ub_20_10: +1 wafer_completion_20 -1 full_pair_completion_10 +10000 wafer_to_full_pair_20_10
  <= +10000
 wafer_full_completion_lb_20_11: +1 wafer_completion_20 -1 full_pair_completion_11 -10000 wafer_to_full_pair_20_11
  >= -10000
 wafer_full_completion_ub_20_11: +1 wafer_completion_20 -1 full_pair_completion_11 +10000 wafer_to_full_pair_20_11
  <= +10000
 wafer_full_completion_lb_20_12: +1 wafer_completion_20 -1 full_pair_completion_12 -10000 wafer_to_full_pair_20_12
  >= -10000
 wafer_full_completion_ub_20_12: +1 wafer_completion_20 -1 full_pair_completion_12 +10000 wafer_to_full_pair_20_12
  <= +10000
 wafer_full_completion_lb_21_1: +1 wafer_completion_21 -1 full_pair_completion_1 -10000 wafer_to_full_pair_21_1
  >= -10000
 wafer_full_completion_ub_21_1: +1 wafer_completion_21 -1 full_pair_completion_1 +10000 wafer_to_full_pair_21_1
  <= +10000
 wafer_full_completion_lb_21_2: +1 wafer_completion_21 -1 full_pair_completion_2 -10000 wafer_to_full_pair_21_2
  >= -10000
 wafer_full_completion_ub_21_2: +1 wafer_completion_21 -1 full_pair_completion_2 +10000 wafer_to_full_pair_21_2
  <= +10000
 wafer_full_completion_lb_21_3: +1 wafer_completion_21 -1 full_pair_completion_3 -10000 wafer_to_full_pair_21_3
  >= -10000
 wafer_full_completion_ub_21_3: +1 wafer_completion_21 -1 full_pair_completion_3 +10000 wafer_to_full_pair_21_3
  <= +10000
 wafer_full_completion_lb_21_4: +1 wafer_completion_21 -1 full_pair_completion_4 -10000 wafer_to_full_pair_21_4
  >= -10000
 wafer_full_completion_ub_21_4: +1 wafer_completion_21 -1 full_pair_completion_4 +10000 wafer_to_full_pair_21_4
  <= +10000
 wafer_full_completion_lb_21_5: +1 wafer_completion_21 -1 full_pair_completion_5 -10000 wafer_to_full_pair_21_5
  >= -10000
 wafer_full_completion_ub_21_5: +1 wafer_completion_21 -1 full_pair_completion_5 +10000 wafer_to_full_pair_21_5
  <= +10000
 wafer_full_completion_lb_21_6: +1 wafer_completion_21 -1 full_pair_completion_6 -10000 wafer_to_full_pair_21_6
  >= -10000
 wafer_full_completion_ub_21_6: +1 wafer_completion_21 -1 full_pair_completion_6 +10000 wafer_to_full_pair_21_6
  <= +10000
 wafer_full_completion_lb_21_7: +1 wafer_completion_21 -1 full_pair_completion_7 -10000 wafer_to_full_pair_21_7
  >= -10000
 wafer_full_completion_ub_21_7: +1 wafer_completion_21 -1 full_pair_completion_7 +10000 wafer_to_full_pair_21_7
  <= +10000
 wafer_full_completion_lb_21_8: +1 wafer_completion_21 -1 full_pair_completion_8 -10000 wafer_to_full_pair_21_8
  >= -10000
 wafer_full_completion_ub_21_8: +1 wafer_completion_21 -1 full_pair_completion_8 +10000 wafer_to_full_pair_21_8
  <= +10000
 wafer_full_completion_lb_21_9: +1 wafer_completion_21 -1 full_pair_completion_9 -10000 wafer_to_full_pair_21_9
  >= -10000
 wafer_full_completion_ub_21_9: +1 wafer_completion_21 -1 full_pair_completion_9 +10000 wafer_to_full_pair_21_9
  <= +10000
 wafer_full_completion_lb_21_10: +1 wafer_completion_21 -1 full_pair_completion_10 -10000 wafer_to_full_pair_21_10
  >= -10000
 wafer_full_completion_ub_21_10: +1 wafer_completion_21 -1 full_pair_completion_10 +10000 wafer_to_full_pair_21_10
  <= +10000
 wafer_full_completion_lb_21_11: +1 wafer_completion_21 -1 full_pair_completion_11 -10000 wafer_to_full_pair_21_11
  >= -10000
 wafer_full_completion_ub_21_11: +1 wafer_completion_21 -1 full_pair_completion_11 +10000 wafer_to_full_pair_21_11
  <= +10000
 wafer_full_completion_lb_21_12: +1 wafer_completion_21 -1 full_pair_completion_12 -10000 wafer_to_full_pair_21_12
  >= -10000
 wafer_full_completion_ub_21_12: +1 wafer_completion_21 -1 full_pair_completion_12 +10000 wafer_to_full_pair_21_12
  <= +10000
 wafer_full_completion_lb_22_1: +1 wafer_completion_22 -1 full_pair_completion_1 -10000 wafer_to_full_pair_22_1
  >= -10000
 wafer_full_completion_ub_22_1: +1 wafer_completion_22 -1 full_pair_completion_1 +10000 wafer_to_full_pair_22_1
  <= +10000
 wafer_full_completion_lb_22_2: +1 wafer_completion_22 -1 full_pair_completion_2 -10000 wafer_to_full_pair_22_2
  >= -10000
 wafer_full_completion_ub_22_2: +1 wafer_completion_22 -1 full_pair_completion_2 +10000 wafer_to_full_pair_22_2
  <= +10000
 wafer_full_completion_lb_22_3: +1 wafer_completion_22 -1 full_pair_completion_3 -10000 wafer_to_full_pair_22_3
  >= -10000
 wafer_full_completion_ub_22_3: +1 wafer_completion_22 -1 full_pair_completion_3 +10000 wafer_to_full_pair_22_3
  <= +10000
 wafer_full_completion_lb_22_4: +1 wafer_completion_22 -1 full_pair_completion_4 -10000 wafer_to_full_pair_22_4
  >= -10000
 wafer_full_completion_ub_22_4: +1 wafer_completion_22 -1 full_pair_completion_4 +10000 wafer_to_full_pair_22_4
  <= +10000
 wafer_full_completion_lb_22_5: +1 wafer_completion_22 -1 full_pair_completion_5 -10000 wafer_to_full_pair_22_5
  >= -10000
 wafer_full_completion_ub_22_5: +1 wafer_completion_22 -1 full_pair_completion_5 +10000 wafer_to_full_pair_22_5
  <= +10000
 wafer_full_completion_lb_22_6: +1 wafer_completion_22 -1 full_pair_completion_6 -10000 wafer_to_full_pair_22_6
  >= -10000
 wafer_full_completion_ub_22_6: +1 wafer_completion_22 -1 full_pair_completion_6 +10000 wafer_to_full_pair_22_6
  <= +10000
 wafer_full_completion_lb_22_7: +1 wafer_completion_22 -1 full_pair_completion_7 -10000 wafer_to_full_pair_22_7
  >= -10000
 wafer_full_completion_ub_22_7: +1 wafer_completion_22 -1 full_pair_completion_7 +10000 wafer_to_full_pair_22_7
  <= +10000
 wafer_full_completion_lb_22_8: +1 wafer_completion_22 -1 full_pair_completion_8 -10000 wafer_to_full_pair_22_8
  >= -10000
 wafer_full_completion_ub_22_8: +1 wafer_completion_22 -1 full_pair_completion_8 +10000 wafer_to_full_pair_22_8
  <= +10000
 wafer_full_completion_lb_22_9: +1 wafer_completion_22 -1 full_pair_completion_9 -10000 wafer_to_full_pair_22_9
  >= -10000
 wafer_full_completion_ub_22_9: +1 wafer_completion_22 -1 full_pair_completion_9 +10000 wafer_to_full_pair_22_9
  <= +10000
 wafer_full_completion_lb_22_10: +1 wafer_completion_22 -1 full_pair_completion_10 -10000 wafer_to_full_pair_22_10
  >= -10000
 wafer_full_completion_ub_22_10: +1 wafer_completion_22 -1 full_pair_completion_10 +10000 wafer_to_full_pair_22_10
  <= +10000
 wafer_full_completion_lb_22_11: +1 wafer_completion_22 -1 full_pair_completion_11 -10000 wafer_to_full_pair_22_11
  >= -10000
 wafer_full_completion_ub_22_11: +1 wafer_completion_22 -1 full_pair_completion_11 +10000 wafer_to_full_pair_22_11
  <= +10000
 wafer_full_completion_lb_22_12: +1 wafer_completion_22 -1 full_pair_completion_12 -10000 wafer_to_full_pair_22_12
  >= -10000
 wafer_full_completion_ub_22_12: +1 wafer_completion_22 -1 full_pair_completion_12 +10000 wafer_to_full_pair_22_12
  <= +10000
 wafer_full_completion_lb_23_1: +1 wafer_completion_23 -1 full_pair_completion_1 -10000 wafer_to_full_pair_23_1
  >= -10000
 wafer_full_completion_ub_23_1: +1 wafer_completion_23 -1 full_pair_completion_1 +10000 wafer_to_full_pair_23_1
  <= +10000
 wafer_full_completion_lb_23_2: +1 wafer_completion_23 -1 full_pair_completion_2 -10000 wafer_to_full_pair_23_2
  >= -10000
 wafer_full_completion_ub_23_2: +1 wafer_completion_23 -1 full_pair_completion_2 +10000 wafer_to_full_pair_23_2
  <= +10000
 wafer_full_completion_lb_23_3: +1 wafer_completion_23 -1 full_pair_completion_3 -10000 wafer_to_full_pair_23_3
  >= -10000
 wafer_full_completion_ub_23_3: +1 wafer_completion_23 -1 full_pair_completion_3 +10000 wafer_to_full_pair_23_3
  <= +10000
 wafer_full_completion_lb_23_4: +1 wafer_completion_23 -1 full_pair_completion_4 -10000 wafer_to_full_pair_23_4
  >= -10000
 wafer_full_completion_ub_23_4: +1 wafer_completion_23 -1 full_pair_completion_4 +10000 wafer_to_full_pair_23_4
  <= +10000
 wafer_full_completion_lb_23_5: +1 wafer_completion_23 -1 full_pair_completion_5 -10000 wafer_to_full_pair_23_5
  >= -10000
 wafer_full_completion_ub_23_5: +1 wafer_completion_23 -1 full_pair_completion_5 +10000 wafer_to_full_pair_23_5
  <= +10000
 wafer_full_completion_lb_23_6: +1 wafer_completion_23 -1 full_pair_completion_6 -10000 wafer_to_full_pair_23_6
  >= -10000
 wafer_full_completion_ub_23_6: +1 wafer_completion_23 -1 full_pair_completion_6 +10000 wafer_to_full_pair_23_6
  <= +10000
 wafer_full_completion_lb_23_7: +1 wafer_completion_23 -1 full_pair_completion_7 -10000 wafer_to_full_pair_23_7
  >= -10000
 wafer_full_completion_ub_23_7: +1 wafer_completion_23 -1 full_pair_completion_7 +10000 wafer_to_full_pair_23_7
  <= +10000
 wafer_full_completion_lb_23_8: +1 wafer_completion_23 -1 full_pair_completion_8 -10000 wafer_to_full_pair_23_8
  >= -10000
 wafer_full_completion_ub_23_8: +1 wafer_completion_23 -1 full_pair_completion_8 +10000 wafer_to_full_pair_23_8
  <= +10000
 wafer_full_completion_lb_23_9: +1 wafer_completion_23 -1 full_pair_completion_9 -10000 wafer_to_full_pair_23_9
  >= -10000
 wafer_full_completion_ub_23_9: +1 wafer_completion_23 -1 full_pair_completion_9 +10000 wafer_to_full_pair_23_9
  <= +10000
 wafer_full_completion_lb_23_10: +1 wafer_completion_23 -1 full_pair_completion_10 -10000 wafer_to_full_pair_23_10
  >= -10000
 wafer_full_completion_ub_23_10: +1 wafer_completion_23 -1 full_pair_completion_10 +10000 wafer_to_full_pair_23_10
  <= +10000
 wafer_full_completion_lb_23_11: +1 wafer_completion_23 -1 full_pair_completion_11 -10000 wafer_to_full_pair_23_11
  >= -10000
 wafer_full_completion_ub_23_11: +1 wafer_completion_23 -1 full_pair_completion_11 +10000 wafer_to_full_pair_23_11
  <= +10000
 wafer_full_completion_lb_23_12: +1 wafer_completion_23 -1 full_pair_completion_12 -10000 wafer_to_full_pair_23_12
  >= -10000
 wafer_full_completion_ub_23_12: +1 wafer_completion_23 -1 full_pair_completion_12 +10000 wafer_to_full_pair_23_12
  <= +10000
 wafer_full_completion_lb_24_1: +1 wafer_completion_24 -1 full_pair_completion_1 -10000 wafer_to_full_pair_24_1
  >= -10000
 wafer_full_completion_ub_24_1: +1 wafer_completion_24 -1 full_pair_completion_1 +10000 wafer_to_full_pair_24_1
  <= +10000
 wafer_full_completion_lb_24_2: +1 wafer_completion_24 -1 full_pair_completion_2 -10000 wafer_to_full_pair_24_2
  >= -10000
 wafer_full_completion_ub_24_2: +1 wafer_completion_24 -1 full_pair_completion_2 +10000 wafer_to_full_pair_24_2
  <= +10000
 wafer_full_completion_lb_24_3: +1 wafer_completion_24 -1 full_pair_completion_3 -10000 wafer_to_full_pair_24_3
  >= -10000
 wafer_full_completion_ub_24_3: +1 wafer_completion_24 -1 full_pair_completion_3 +10000 wafer_to_full_pair_24_3
  <= +10000
 wafer_full_completion_lb_24_4: +1 wafer_completion_24 -1 full_pair_completion_4 -10000 wafer_to_full_pair_24_4
  >= -10000
 wafer_full_completion_ub_24_4: +1 wafer_completion_24 -1 full_pair_completion_4 +10000 wafer_to_full_pair_24_4
  <= +10000
 wafer_full_completion_lb_24_5: +1 wafer_completion_24 -1 full_pair_completion_5 -10000 wafer_to_full_pair_24_5
  >= -10000
 wafer_full_completion_ub_24_5: +1 wafer_completion_24 -1 full_pair_completion_5 +10000 wafer_to_full_pair_24_5
  <= +10000
 wafer_full_completion_lb_24_6: +1 wafer_completion_24 -1 full_pair_completion_6 -10000 wafer_to_full_pair_24_6
  >= -10000
 wafer_full_completion_ub_24_6: +1 wafer_completion_24 -1 full_pair_completion_6 +10000 wafer_to_full_pair_24_6
  <= +10000
 wafer_full_completion_lb_24_7: +1 wafer_completion_24 -1 full_pair_completion_7 -10000 wafer_to_full_pair_24_7
  >= -10000
 wafer_full_completion_ub_24_7: +1 wafer_completion_24 -1 full_pair_completion_7 +10000 wafer_to_full_pair_24_7
  <= +10000
 wafer_full_completion_lb_24_8: +1 wafer_completion_24 -1 full_pair_completion_8 -10000 wafer_to_full_pair_24_8
  >= -10000
 wafer_full_completion_ub_24_8: +1 wafer_completion_24 -1 full_pair_completion_8 +10000 wafer_to_full_pair_24_8
  <= +10000
 wafer_full_completion_lb_24_9: +1 wafer_completion_24 -1 full_pair_completion_9 -10000 wafer_to_full_pair_24_9
  >= -10000
 wafer_full_completion_ub_24_9: +1 wafer_completion_24 -1 full_pair_completion_9 +10000 wafer_to_full_pair_24_9
  <= +10000
 wafer_full_completion_lb_24_10: +1 wafer_completion_24 -1 full_pair_completion_10 -10000 wafer_to_full_pair_24_10
  >= -10000
 wafer_full_completion_ub_24_10: +1 wafer_completion_24 -1 full_pair_completion_10 +10000 wafer_to_full_pair_24_10
  <= +10000
 wafer_full_completion_lb_24_11: +1 wafer_completion_24 -1 full_pair_completion_11 -10000 wafer_to_full_pair_24_11
  >= -10000
 wafer_full_completion_ub_24_11: +1 wafer_completion_24 -1 full_pair_completion_11 +10000 wafer_to_full_pair_24_11
  <= +10000
 wafer_full_completion_lb_24_12: +1 wafer_completion_24 -1 full_pair_completion_12 -10000 wafer_to_full_pair_24_12
  >= -10000
 wafer_full_completion_ub_24_12: +1 wafer_completion_24 -1 full_pair_completion_12 +10000 wafer_to_full_pair_24_12
  <= +10000
 wafer_mix_completion_lb_25_1: +1 wafer_completion_25 -1 mix_pair_completion_1 -10000 wafer_to_mix_pair_25_1
  >= -10000
 wafer_mix_completion_ub_25_1: +1 wafer_completion_25 -1 mix_pair_completion_1 +10000 wafer_to_mix_pair_25_1
  <= +10000
 wafer_mix_completion_lb_25_2: +1 wafer_completion_25 -1 mix_pair_completion_2 -10000 wafer_to_mix_pair_25_2
  >= -10000
 wafer_mix_completion_ub_25_2: +1 wafer_completion_25 -1 mix_pair_completion_2 +10000 wafer_to_mix_pair_25_2
  <= +10000
 wafer_mix_completion_lb_25_3: +1 wafer_completion_25 -1 mix_pair_completion_3 -10000 wafer_to_mix_pair_25_3
  >= -10000
 wafer_mix_completion_ub_25_3: +1 wafer_completion_25 -1 mix_pair_completion_3 +10000 wafer_to_mix_pair_25_3
  <= +10000
 wafer_mix_completion_lb_25_4: +1 wafer_completion_25 -1 mix_pair_completion_4 -10000 wafer_to_mix_pair_25_4
  >= -10000
 wafer_mix_completion_ub_25_4: +1 wafer_completion_25 -1 mix_pair_completion_4 +10000 wafer_to_mix_pair_25_4
  <= +10000
 wafer_mix_completion_lb_25_5: +1 wafer_completion_25 -1 mix_pair_completion_5 -10000 wafer_to_mix_pair_25_5
  >= -10000
 wafer_mix_completion_ub_25_5: +1 wafer_completion_25 -1 mix_pair_completion_5 +10000 wafer_to_mix_pair_25_5
  <= +10000
 wafer_mix_completion_lb_25_6: +1 wafer_completion_25 -1 mix_pair_completion_6 -10000 wafer_to_mix_pair_25_6
  >= -10000
 wafer_mix_completion_ub_25_6: +1 wafer_completion_25 -1 mix_pair_completion_6 +10000 wafer_to_mix_pair_25_6
  <= +10000
 wafer_mix_completion_lb_25_7: +1 wafer_completion_25 -1 mix_pair_completion_7 -10000 wafer_to_mix_pair_25_7
  >= -10000
 wafer_mix_completion_ub_25_7: +1 wafer_completion_25 -1 mix_pair_completion_7 +10000 wafer_to_mix_pair_25_7
  <= +10000
 wafer_mix_completion_lb_25_8: +1 wafer_completion_25 -1 mix_pair_completion_8 -10000 wafer_to_mix_pair_25_8
  >= -10000
 wafer_mix_completion_ub_25_8: +1 wafer_completion_25 -1 mix_pair_completion_8 +10000 wafer_to_mix_pair_25_8
  <= +10000
 wafer_mix_completion_lb_26_1: +1 wafer_completion_26 -1 mix_pair_completion_1 -10000 wafer_to_mix_pair_26_1
  >= -10000
 wafer_mix_completion_ub_26_1: +1 wafer_completion_26 -1 mix_pair_completion_1 +10000 wafer_to_mix_pair_26_1
  <= +10000
 wafer_mix_completion_lb_26_2: +1 wafer_completion_26 -1 mix_pair_completion_2 -10000 wafer_to_mix_pair_26_2
  >= -10000
 wafer_mix_completion_ub_26_2: +1 wafer_completion_26 -1 mix_pair_completion_2 +10000 wafer_to_mix_pair_26_2
  <= +10000
 wafer_mix_completion_lb_26_3: +1 wafer_completion_26 -1 mix_pair_completion_3 -10000 wafer_to_mix_pair_26_3
  >= -10000
 wafer_mix_completion_ub_26_3: +1 wafer_completion_26 -1 mix_pair_completion_3 +10000 wafer_to_mix_pair_26_3
  <= +10000
 wafer_mix_completion_lb_26_4: +1 wafer_completion_26 -1 mix_pair_completion_4 -10000 wafer_to_mix_pair_26_4
  >= -10000
 wafer_mix_completion_ub_26_4: +1 wafer_completion_26 -1 mix_pair_completion_4 +10000 wafer_to_mix_pair_26_4
  <= +10000
 wafer_mix_completion_lb_26_5: +1 wafer_completion_26 -1 mix_pair_completion_5 -10000 wafer_to_mix_pair_26_5
  >= -10000
 wafer_mix_completion_ub_26_5: +1 wafer_completion_26 -1 mix_pair_completion_5 +10000 wafer_to_mix_pair_26_5
  <= +10000
 wafer_mix_completion_lb_26_6: +1 wafer_completion_26 -1 mix_pair_completion_6 -10000 wafer_to_mix_pair_26_6
  >= -10000
 wafer_mix_completion_ub_26_6: +1 wafer_completion_26 -1 mix_pair_completion_6 +10000 wafer_to_mix_pair_26_6
  <= +10000
 wafer_mix_completion_lb_26_7: +1 wafer_completion_26 -1 mix_pair_completion_7 -10000 wafer_to_mix_pair_26_7
  >= -10000
 wafer_mix_completion_ub_26_7: +1 wafer_completion_26 -1 mix_pair_completion_7 +10000 wafer_to_mix_pair_26_7
  <= +10000
 wafer_mix_completion_lb_26_8: +1 wafer_completion_26 -1 mix_pair_completion_8 -10000 wafer_to_mix_pair_26_8
  >= -10000
 wafer_mix_completion_ub_26_8: +1 wafer_completion_26 -1 mix_pair_completion_8 +10000 wafer_to_mix_pair_26_8
  <= +10000
 wafer_mix_completion_lb_27_1: +1 wafer_completion_27 -1 mix_pair_completion_1 -10000 wafer_to_mix_pair_27_1
  >= -10000
 wafer_mix_completion_ub_27_1: +1 wafer_completion_27 -1 mix_pair_completion_1 +10000 wafer_to_mix_pair_27_1
  <= +10000
 wafer_mix_completion_lb_27_2: +1 wafer_completion_27 -1 mix_pair_completion_2 -10000 wafer_to_mix_pair_27_2
  >= -10000
 wafer_mix_completion_ub_27_2: +1 wafer_completion_27 -1 mix_pair_completion_2 +10000 wafer_to_mix_pair_27_2
  <= +10000
 wafer_mix_completion_lb_27_3: +1 wafer_completion_27 -1 mix_pair_completion_3 -10000 wafer_to_mix_pair_27_3
  >= -10000
 wafer_mix_completion_ub_27_3: +1 wafer_completion_27 -1 mix_pair_completion_3 +10000 wafer_to_mix_pair_27_3
  <= +10000
 wafer_mix_completion_lb_27_4: +1 wafer_completion_27 -1 mix_pair_completion_4 -10000 wafer_to_mix_pair_27_4
  >= -10000
 wafer_mix_completion_ub_27_4: +1 wafer_completion_27 -1 mix_pair_completion_4 +10000 wafer_to_mix_pair_27_4
  <= +10000
 wafer_mix_completion_lb_27_5: +1 wafer_completion_27 -1 mix_pair_completion_5 -10000 wafer_to_mix_pair_27_5
  >= -10000
 wafer_mix_completion_ub_27_5: +1 wafer_completion_27 -1 mix_pair_completion_5 +10000 wafer_to_mix_pair_27_5
  <= +10000
 wafer_mix_completion_lb_27_6: +1 wafer_completion_27 -1 mix_pair_completion_6 -10000 wafer_to_mix_pair_27_6
  >= -10000
 wafer_mix_completion_ub_27_6: +1 wafer_completion_27 -1 mix_pair_completion_6 +10000 wafer_to_mix_pair_27_6
  <= +10000
 wafer_mix_completion_lb_27_7: +1 wafer_completion_27 -1 mix_pair_completion_7 -10000 wafer_to_mix_pair_27_7
  >= -10000
 wafer_mix_completion_ub_27_7: +1 wafer_completion_27 -1 mix_pair_completion_7 +10000 wafer_to_mix_pair_27_7
  <= +10000
 wafer_mix_completion_lb_27_8: +1 wafer_completion_27 -1 mix_pair_completion_8 -10000 wafer_to_mix_pair_27_8
  >= -10000
 wafer_mix_completion_ub_27_8: +1 wafer_completion_27 -1 mix_pair_completion_8 +10000 wafer_to_mix_pair_27_8
  <= +10000
 wafer_mix_completion_lb_28_1: +1 wafer_completion_28 -1 mix_pair_completion_1 -10000 wafer_to_mix_pair_28_1
  >= -10000
 wafer_mix_completion_ub_28_1: +1 wafer_completion_28 -1 mix_pair_completion_1 +10000 wafer_to_mix_pair_28_1
  <= +10000
 wafer_mix_completion_lb_28_2: +1 wafer_completion_28 -1 mix_pair_completion_2 -10000 wafer_to_mix_pair_28_2
  >= -10000
 wafer_mix_completion_ub_28_2: +1 wafer_completion_28 -1 mix_pair_completion_2 +10000 wafer_to_mix_pair_28_2
  <= +10000
 wafer_mix_completion_lb_28_3: +1 wafer_completion_28 -1 mix_pair_completion_3 -10000 wafer_to_mix_pair_28_3
  >= -10000
 wafer_mix_completion_ub_28_3: +1 wafer_completion_28 -1 mix_pair_completion_3 +10000 wafer_to_mix_pair_28_3
  <= +10000
 wafer_mix_completion_lb_28_4: +1 wafer_completion_28 -1 mix_pair_completion_4 -10000 wafer_to_mix_pair_28_4
  >= -10000
 wafer_mix_completion_ub_28_4: +1 wafer_completion_28 -1 mix_pair_completion_4 +10000 wafer_to_mix_pair_28_4
  <= +10000
 wafer_mix_completion_lb_28_5: +1 wafer_completion_28 -1 mix_pair_completion_5 -10000 wafer_to_mix_pair_28_5
  >= -10000
 wafer_mix_completion_ub_28_5: +1 wafer_completion_28 -1 mix_pair_completion_5 +10000 wafer_to_mix_pair_28_5
  <= +10000
 wafer_mix_completion_lb_28_6: +1 wafer_completion_28 -1 mix_pair_completion_6 -10000 wafer_to_mix_pair_28_6
  >= -10000
 wafer_mix_completion_ub_28_6: +1 wafer_completion_28 -1 mix_pair_completion_6 +10000 wafer_to_mix_pair_28_6
  <= +10000
 wafer_mix_completion_lb_28_7: +1 wafer_completion_28 -1 mix_pair_completion_7 -10000 wafer_to_mix_pair_28_7
  >= -10000
 wafer_mix_completion_ub_28_7: +1 wafer_completion_28 -1 mix_pair_completion_7 +10000 wafer_to_mix_pair_28_7
  <= +10000
 wafer_mix_completion_lb_28_8: +1 wafer_completion_28 -1 mix_pair_completion_8 -10000 wafer_to_mix_pair_28_8
  >= -10000
 wafer_mix_completion_ub_28_8: +1 wafer_completion_28 -1 mix_pair_completion_8 +10000 wafer_to_mix_pair_28_8
  <= +10000
 wafer_mix_completion_lb_29_1: +1 wafer_completion_29 -1 mix_pair_completion_1 -10000 wafer_to_mix_pair_29_1
  >= -10000
 wafer_mix_completion_ub_29_1: +1 wafer_completion_29 -1 mix_pair_completion_1 +10000 wafer_to_mix_pair_29_1
  <= +10000
 wafer_mix_completion_lb_29_2: +1 wafer_completion_29 -1 mix_pair_completion_2 -10000 wafer_to_mix_pair_29_2
  >= -10000
 wafer_mix_completion_ub_29_2: +1 wafer_completion_29 -1 mix_pair_completion_2 +10000 wafer_to_mix_pair_29_2
  <= +10000
 wafer_mix_completion_lb_29_3: +1 wafer_completion_29 -1 mix_pair_completion_3 -10000 wafer_to_mix_pair_29_3
  >= -10000
 wafer_mix_completion_ub_29_3: +1 wafer_completion_29 -1 mix_pair_completion_3 +10000 wafer_to_mix_pair_29_3
  <= +10000
 wafer_mix_completion_lb_29_4: +1 wafer_completion_29 -1 mix_pair_completion_4 -10000 wafer_to_mix_pair_29_4
  >= -10000
 wafer_mix_completion_ub_29_4: +1 wafer_completion_29 -1 mix_pair_completion_4 +10000 wafer_to_mix_pair_29_4
  <= +10000
 wafer_mix_completion_lb_29_5: +1 wafer_completion_29 -1 mix_pair_completion_5 -10000 wafer_to_mix_pair_29_5
  >= -10000
 wafer_mix_completion_ub_29_5: +1 wafer_completion_29 -1 mix_pair_completion_5 +10000 wafer_to_mix_pair_29_5
  <= +10000
 wafer_mix_completion_lb_29_6: +1 wafer_completion_29 -1 mix_pair_completion_6 -10000 wafer_to_mix_pair_29_6
  >= -10000
 wafer_mix_completion_ub_29_6: +1 wafer_completion_29 -1 mix_pair_completion_6 +10000 wafer_to_mix_pair_29_6
  <= +10000
 wafer_mix_completion_lb_29_7: +1 wafer_completion_29 -1 mix_pair_completion_7 -10000 wafer_to_mix_pair_29_7
  >= -10000
 wafer_mix_completion_ub_29_7: +1 wafer_completion_29 -1 mix_pair_completion_7 +10000 wafer_to_mix_pair_29_7
  <= +10000
 wafer_mix_completion_lb_29_8: +1 wafer_completion_29 -1 mix_pair_completion_8 -10000 wafer_to_mix_pair_29_8
  >= -10000
 wafer_mix_completion_ub_29_8: +1 wafer_completion_29 -1 mix_pair_completion_8 +10000 wafer_to_mix_pair_29_8
  <= +10000
 wafer_mix_completion_lb_30_1: +1 wafer_completion_30 -1 mix_pair_completion_1 -10000 wafer_to_mix_pair_30_1
  >= -10000
 wafer_mix_completion_ub_30_1: +1 wafer_completion_30 -1 mix_pair_completion_1 +10000 wafer_to_mix_pair_30_1
  <= +10000
 wafer_mix_completion_lb_30_2: +1 wafer_completion_30 -1 mix_pair_completion_2 -10000 wafer_to_mix_pair_30_2
  >= -10000
 wafer_mix_completion_ub_30_2: +1 wafer_completion_30 -1 mix_pair_completion_2 +10000 wafer_to_mix_pair_30_2
  <= +10000
 wafer_mix_completion_lb_30_3: +1 wafer_completion_30 -1 mix_pair_completion_3 -10000 wafer_to_mix_pair_30_3
  >= -10000
 wafer_mix_completion_ub_30_3: +1 wafer_completion_30 -1 mix_pair_completion_3 +10000 wafer_to_mix_pair_30_3
  <= +10000
 wafer_mix_completion_lb_30_4: +1 wafer_completion_30 -1 mix_pair_completion_4 -10000 wafer_to_mix_pair_30_4
  >= -10000
 wafer_mix_completion_ub_30_4: +1 wafer_completion_30 -1 mix_pair_completion_4 +10000 wafer_to_mix_pair_30_4
  <= +10000
 wafer_mix_completion_lb_30_5: +1 wafer_completion_30 -1 mix_pair_completion_5 -10000 wafer_to_mix_pair_30_5
  >= -10000
 wafer_mix_completion_ub_30_5: +1 wafer_completion_30 -1 mix_pair_completion_5 +10000 wafer_to_mix_pair_30_5
  <= +10000
 wafer_mix_completion_lb_30_6: +1 wafer_completion_30 -1 mix_pair_completion_6 -10000 wafer_to_mix_pair_30_6
  >= -10000
 wafer_mix_completion_ub_30_6: +1 wafer_completion_30 -1 mix_pair_completion_6 +10000 wafer_to_mix_pair_30_6
  <= +10000
 wafer_mix_completion_lb_30_7: +1 wafer_completion_30 -1 mix_pair_completion_7 -10000 wafer_to_mix_pair_30_7
  >= -10000
 wafer_mix_completion_ub_30_7: +1 wafer_completion_30 -1 mix_pair_completion_7 +10000 wafer_to_mix_pair_30_7
  <= +10000
 wafer_mix_completion_lb_30_8: +1 wafer_completion_30 -1 mix_pair_completion_8 -10000 wafer_to_mix_pair_30_8
  >= -10000
 wafer_mix_completion_ub_30_8: +1 wafer_completion_30 -1 mix_pair_completion_8 +10000 wafer_to_mix_pair_30_8
  <= +10000
 wafer_mix_completion_lb_31_1: +1 wafer_completion_31 -1 mix_pair_completion_1 -10000 wafer_to_mix_pair_31_1
  >= -10000
 wafer_mix_completion_ub_31_1: +1 wafer_completion_31 -1 mix_pair_completion_1 +10000 wafer_to_mix_pair_31_1
  <= +10000
 wafer_mix_completion_lb_31_2: +1 wafer_completion_31 -1 mix_pair_completion_2 -10000 wafer_to_mix_pair_31_2
  >= -10000
 wafer_mix_completion_ub_31_2: +1 wafer_completion_31 -1 mix_pair_completion_2 +10000 wafer_to_mix_pair_31_2
  <= +10000
 wafer_mix_completion_lb_31_3: +1 wafer_completion_31 -1 mix_pair_completion_3 -10000 wafer_to_mix_pair_31_3
  >= -10000
 wafer_mix_completion_ub_31_3: +1 wafer_completion_31 -1 mix_pair_completion_3 +10000 wafer_to_mix_pair_31_3
  <= +10000
 wafer_mix_completion_lb_31_4: +1 wafer_completion_31 -1 mix_pair_completion_4 -10000 wafer_to_mix_pair_31_4
  >= -10000
 wafer_mix_completion_ub_31_4: +1 wafer_completion_31 -1 mix_pair_completion_4 +10000 wafer_to_mix_pair_31_4
  <= +10000
 wafer_mix_completion_lb_31_5: +1 wafer_completion_31 -1 mix_pair_completion_5 -10000 wafer_to_mix_pair_31_5
  >= -10000
 wafer_mix_completion_ub_31_5: +1 wafer_completion_31 -1 mix_pair_completion_5 +10000 wafer_to_mix_pair_31_5
  <= +10000
 wafer_mix_completion_lb_31_6: +1 wafer_completion_31 -1 mix_pair_completion_6 -10000 wafer_to_mix_pair_31_6
  >= -10000
 wafer_mix_completion_ub_31_6: +1 wafer_completion_31 -1 mix_pair_completion_6 +10000 wafer_to_mix_pair_31_6
  <= +10000
 wafer_mix_completion_lb_31_7: +1 wafer_completion_31 -1 mix_pair_completion_7 -10000 wafer_to_mix_pair_31_7
  >= -10000
 wafer_mix_completion_ub_31_7: +1 wafer_completion_31 -1 mix_pair_completion_7 +10000 wafer_to_mix_pair_31_7
  <= +10000
 wafer_mix_completion_lb_31_8: +1 wafer_completion_31 -1 mix_pair_completion_8 -10000 wafer_to_mix_pair_31_8
  >= -10000
 wafer_mix_completion_ub_31_8: +1 wafer_completion_31 -1 mix_pair_completion_8 +10000 wafer_to_mix_pair_31_8
  <= +10000
 wafer_mix_completion_lb_32_1: +1 wafer_completion_32 -1 mix_pair_completion_1 -10000 wafer_to_mix_pair_32_1
  >= -10000
 wafer_mix_completion_ub_32_1: +1 wafer_completion_32 -1 mix_pair_completion_1 +10000 wafer_to_mix_pair_32_1
  <= +10000
 wafer_mix_completion_lb_32_2: +1 wafer_completion_32 -1 mix_pair_completion_2 -10000 wafer_to_mix_pair_32_2
  >= -10000
 wafer_mix_completion_ub_32_2: +1 wafer_completion_32 -1 mix_pair_completion_2 +10000 wafer_to_mix_pair_32_2
  <= +10000
 wafer_mix_completion_lb_32_3: +1 wafer_completion_32 -1 mix_pair_completion_3 -10000 wafer_to_mix_pair_32_3
  >= -10000
 wafer_mix_completion_ub_32_3: +1 wafer_completion_32 -1 mix_pair_completion_3 +10000 wafer_to_mix_pair_32_3
  <= +10000
 wafer_mix_completion_lb_32_4: +1 wafer_completion_32 -1 mix_pair_completion_4 -10000 wafer_to_mix_pair_32_4
  >= -10000
 wafer_mix_completion_ub_32_4: +1 wafer_completion_32 -1 mix_pair_completion_4 +10000 wafer_to_mix_pair_32_4
  <= +10000
 wafer_mix_completion_lb_32_5: +1 wafer_completion_32 -1 mix_pair_completion_5 -10000 wafer_to_mix_pair_32_5
  >= -10000
 wafer_mix_completion_ub_32_5: +1 wafer_completion_32 -1 mix_pair_completion_5 +10000 wafer_to_mix_pair_32_5
  <= +10000
 wafer_mix_completion_lb_32_6: +1 wafer_completion_32 -1 mix_pair_completion_6 -10000 wafer_to_mix_pair_32_6
  >= -10000
 wafer_mix_completion_ub_32_6: +1 wafer_completion_32 -1 mix_pair_completion_6 +10000 wafer_to_mix_pair_32_6
  <= +10000
 wafer_mix_completion_lb_32_7: +1 wafer_completion_32 -1 mix_pair_completion_7 -10000 wafer_to_mix_pair_32_7
  >= -10000
 wafer_mix_completion_ub_32_7: +1 wafer_completion_32 -1 mix_pair_completion_7 +10000 wafer_to_mix_pair_32_7
  <= +10000
 wafer_mix_completion_lb_32_8: +1 wafer_completion_32 -1 mix_pair_completion_8 -10000 wafer_to_mix_pair_32_8
  >= -10000
 wafer_mix_completion_ub_32_8: +1 wafer_completion_32 -1 mix_pair_completion_8 +10000 wafer_to_mix_pair_32_8
  <= +10000
 wafer_mix_completion_lb_33_1: +1 wafer_completion_33 -1 mix_pair_completion_1 -10000 wafer_to_mix_pair_33_1
  >= -10000
 wafer_mix_completion_ub_33_1: +1 wafer_completion_33 -1 mix_pair_completion_1 +10000 wafer_to_mix_pair_33_1
  <= +10000
 wafer_mix_completion_lb_33_2: +1 wafer_completion_33 -1 mix_pair_completion_2 -10000 wafer_to_mix_pair_33_2
  >= -10000
 wafer_mix_completion_ub_33_2: +1 wafer_completion_33 -1 mix_pair_completion_2 +10000 wafer_to_mix_pair_33_2
  <= +10000
 wafer_mix_completion_lb_33_3: +1 wafer_completion_33 -1 mix_pair_completion_3 -10000 wafer_to_mix_pair_33_3
  >= -10000
 wafer_mix_completion_ub_33_3: +1 wafer_completion_33 -1 mix_pair_completion_3 +10000 wafer_to_mix_pair_33_3
  <= +10000
 wafer_mix_completion_lb_33_4: +1 wafer_completion_33 -1 mix_pair_completion_4 -10000 wafer_to_mix_pair_33_4
  >= -10000
 wafer_mix_completion_ub_33_4: +1 wafer_completion_33 -1 mix_pair_completion_4 +10000 wafer_to_mix_pair_33_4
  <= +10000
 wafer_mix_completion_lb_33_5: +1 wafer_completion_33 -1 mix_pair_completion_5 -10000 wafer_to_mix_pair_33_5
  >= -10000
 wafer_mix_completion_ub_33_5: +1 wafer_completion_33 -1 mix_pair_completion_5 +10000 wafer_to_mix_pair_33_5
  <= +10000
 wafer_mix_completion_lb_33_6: +1 wafer_completion_33 -1 mix_pair_completion_6 -10000 wafer_to_mix_pair_33_6
  >= -10000
 wafer_mix_completion_ub_33_6: +1 wafer_completion_33 -1 mix_pair_completion_6 +10000 wafer_to_mix_pair_33_6
  <= +10000
 wafer_mix_completion_lb_33_7: +1 wafer_completion_33 -1 mix_pair_completion_7 -10000 wafer_to_mix_pair_33_7
  >= -10000
 wafer_mix_completion_ub_33_7: +1 wafer_completion_33 -1 mix_pair_completion_7 +10000 wafer_to_mix_pair_33_7
  <= +10000
 wafer_mix_completion_lb_33_8: +1 wafer_completion_33 -1 mix_pair_completion_8 -10000 wafer_to_mix_pair_33_8
  >= -10000
 wafer_mix_completion_ub_33_8: +1 wafer_completion_33 -1 mix_pair_completion_8 +10000 wafer_to_mix_pair_33_8
  <= +10000
 wafer_mix_completion_lb_34_1: +1 wafer_completion_34 -1 mix_pair_completion_1 -10000 wafer_to_mix_pair_34_1
  >= -10000
 wafer_mix_completion_ub_34_1: +1 wafer_completion_34 -1 mix_pair_completion_1 +10000 wafer_to_mix_pair_34_1
  <= +10000
 wafer_mix_completion_lb_34_2: +1 wafer_completion_34 -1 mix_pair_completion_2 -10000 wafer_to_mix_pair_34_2
  >= -10000
 wafer_mix_completion_ub_34_2: +1 wafer_completion_34 -1 mix_pair_completion_2 +10000 wafer_to_mix_pair_34_2
  <= +10000
 wafer_mix_completion_lb_34_3: +1 wafer_completion_34 -1 mix_pair_completion_3 -10000 wafer_to_mix_pair_34_3
  >= -10000
 wafer_mix_completion_ub_34_3: +1 wafer_completion_34 -1 mix_pair_completion_3 +10000 wafer_to_mix_pair_34_3
  <= +10000
 wafer_mix_completion_lb_34_4: +1 wafer_completion_34 -1 mix_pair_completion_4 -10000 wafer_to_mix_pair_34_4
  >= -10000
 wafer_mix_completion_ub_34_4: +1 wafer_completion_34 -1 mix_pair_completion_4 +10000 wafer_to_mix_pair_34_4
  <= +10000
 wafer_mix_completion_lb_34_5: +1 wafer_completion_34 -1 mix_pair_completion_5 -10000 wafer_to_mix_pair_34_5
  >= -10000
 wafer_mix_completion_ub_34_5: +1 wafer_completion_34 -1 mix_pair_completion_5 +10000 wafer_to_mix_pair_34_5
  <= +10000
 wafer_mix_completion_lb_34_6: +1 wafer_completion_34 -1 mix_pair_completion_6 -10000 wafer_to_mix_pair_34_6
  >= -10000
 wafer_mix_completion_ub_34_6: +1 wafer_completion_34 -1 mix_pair_completion_6 +10000 wafer_to_mix_pair_34_6
  <= +10000
 wafer_mix_completion_lb_34_7: +1 wafer_completion_34 -1 mix_pair_completion_7 -10000 wafer_to_mix_pair_34_7
  >= -10000
 wafer_mix_completion_ub_34_7: +1 wafer_completion_34 -1 mix_pair_completion_7 +10000 wafer_to_mix_pair_34_7
  <= +10000
 wafer_mix_completion_lb_34_8: +1 wafer_completion_34 -1 mix_pair_completion_8 -10000 wafer_to_mix_pair_34_8
  >= -10000
 wafer_mix_completion_ub_34_8: +1 wafer_completion_34 -1 mix_pair_completion_8 +10000 wafer_to_mix_pair_34_8
  <= +10000
 wafer_mix_completion_lb_35_1: +1 wafer_completion_35 -1 mix_pair_completion_1 -10000 wafer_to_mix_pair_35_1
  >= -10000
 wafer_mix_completion_ub_35_1: +1 wafer_completion_35 -1 mix_pair_completion_1 +10000 wafer_to_mix_pair_35_1
  <= +10000
 wafer_mix_completion_lb_35_2: +1 wafer_completion_35 -1 mix_pair_completion_2 -10000 wafer_to_mix_pair_35_2
  >= -10000
 wafer_mix_completion_ub_35_2: +1 wafer_completion_35 -1 mix_pair_completion_2 +10000 wafer_to_mix_pair_35_2
  <= +10000
 wafer_mix_completion_lb_35_3: +1 wafer_completion_35 -1 mix_pair_completion_3 -10000 wafer_to_mix_pair_35_3
  >= -10000
 wafer_mix_completion_ub_35_3: +1 wafer_completion_35 -1 mix_pair_completion_3 +10000 wafer_to_mix_pair_35_3
  <= +10000
 wafer_mix_completion_lb_35_4: +1 wafer_completion_35 -1 mix_pair_completion_4 -10000 wafer_to_mix_pair_35_4
  >= -10000
 wafer_mix_completion_ub_35_4: +1 wafer_completion_35 -1 mix_pair_completion_4 +10000 wafer_to_mix_pair_35_4
  <= +10000
 wafer_mix_completion_lb_35_5: +1 wafer_completion_35 -1 mix_pair_completion_5 -10000 wafer_to_mix_pair_35_5
  >= -10000
 wafer_mix_completion_ub_35_5: +1 wafer_completion_35 -1 mix_pair_completion_5 +10000 wafer_to_mix_pair_35_5
  <= +10000
 wafer_mix_completion_lb_35_6: +1 wafer_completion_35 -1 mix_pair_completion_6 -10000 wafer_to_mix_pair_35_6
  >= -10000
 wafer_mix_completion_ub_35_6: +1 wafer_completion_35 -1 mix_pair_completion_6 +10000 wafer_to_mix_pair_35_6
  <= +10000
 wafer_mix_completion_lb_35_7: +1 wafer_completion_35 -1 mix_pair_completion_7 -10000 wafer_to_mix_pair_35_7
  >= -10000
 wafer_mix_completion_ub_35_7: +1 wafer_completion_35 -1 mix_pair_completion_7 +10000 wafer_to_mix_pair_35_7
  <= +10000
 wafer_mix_completion_lb_35_8: +1 wafer_completion_35 -1 mix_pair_completion_8 -10000 wafer_to_mix_pair_35_8
  >= -10000
 wafer_mix_completion_ub_35_8: +1 wafer_completion_35 -1 mix_pair_completion_8 +10000 wafer_to_mix_pair_35_8
  <= +10000
 wafer_mix_completion_lb_36_1: +1 wafer_completion_36 -1 mix_pair_completion_1 -10000 wafer_to_mix_pair_36_1
  >= -10000
 wafer_mix_completion_ub_36_1: +1 wafer_completion_36 -1 mix_pair_completion_1 +10000 wafer_to_mix_pair_36_1
  <= +10000
 wafer_mix_completion_lb_36_2: +1 wafer_completion_36 -1 mix_pair_completion_2 -10000 wafer_to_mix_pair_36_2
  >= -10000
 wafer_mix_completion_ub_36_2: +1 wafer_completion_36 -1 mix_pair_completion_2 +10000 wafer_to_mix_pair_36_2
  <= +10000
 wafer_mix_completion_lb_36_3: +1 wafer_completion_36 -1 mix_pair_completion_3 -10000 wafer_to_mix_pair_36_3
  >= -10000
 wafer_mix_completion_ub_36_3: +1 wafer_completion_36 -1 mix_pair_completion_3 +10000 wafer_to_mix_pair_36_3
  <= +10000
 wafer_mix_completion_lb_36_4: +1 wafer_completion_36 -1 mix_pair_completion_4 -10000 wafer_to_mix_pair_36_4
  >= -10000
 wafer_mix_completion_ub_36_4: +1 wafer_completion_36 -1 mix_pair_completion_4 +10000 wafer_to_mix_pair_36_4
  <= +10000
 wafer_mix_completion_lb_36_5: +1 wafer_completion_36 -1 mix_pair_completion_5 -10000 wafer_to_mix_pair_36_5
  >= -10000
 wafer_mix_completion_ub_36_5: +1 wafer_completion_36 -1 mix_pair_completion_5 +10000 wafer_to_mix_pair_36_5
  <= +10000
 wafer_mix_completion_lb_36_6: +1 wafer_completion_36 -1 mix_pair_completion_6 -10000 wafer_to_mix_pair_36_6
  >= -10000
 wafer_mix_completion_ub_36_6: +1 wafer_completion_36 -1 mix_pair_completion_6 +10000 wafer_to_mix_pair_36_6
  <= +10000
 wafer_mix_completion_lb_36_7: +1 wafer_completion_36 -1 mix_pair_completion_7 -10000 wafer_to_mix_pair_36_7
  >= -10000
 wafer_mix_completion_ub_36_7: +1 wafer_completion_36 -1 mix_pair_completion_7 +10000 wafer_to_mix_pair_36_7
  <= +10000
 wafer_mix_completion_lb_36_8: +1 wafer_completion_36 -1 mix_pair_completion_8 -10000 wafer_to_mix_pair_36_8
  >= -10000
 wafer_mix_completion_ub_36_8: +1 wafer_completion_36 -1 mix_pair_completion_8 +10000 wafer_to_mix_pair_36_8
  <= +10000
 wafer_mix_completion_lb_37_1: +1 wafer_completion_37 -1 mix_pair_completion_1 -10000 wafer_to_mix_pair_37_1
  >= -10000
 wafer_mix_completion_ub_37_1: +1 wafer_completion_37 -1 mix_pair_completion_1 +10000 wafer_to_mix_pair_37_1
  <= +10000
 wafer_mix_completion_lb_37_2: +1 wafer_completion_37 -1 mix_pair_completion_2 -10000 wafer_to_mix_pair_37_2
  >= -10000
 wafer_mix_completion_ub_37_2: +1 wafer_completion_37 -1 mix_pair_completion_2 +10000 wafer_to_mix_pair_37_2
  <= +10000
 wafer_mix_completion_lb_37_3: +1 wafer_completion_37 -1 mix_pair_completion_3 -10000 wafer_to_mix_pair_37_3
  >= -10000
 wafer_mix_completion_ub_37_3: +1 wafer_completion_37 -1 mix_pair_completion_3 +10000 wafer_to_mix_pair_37_3
  <= +10000
 wafer_mix_completion_lb_37_4: +1 wafer_completion_37 -1 mix_pair_completion_4 -10000 wafer_to_mix_pair_37_4
  >= -10000
 wafer_mix_completion_ub_37_4: +1 wafer_completion_37 -1 mix_pair_completion_4 +10000 wafer_to_mix_pair_37_4
  <= +10000
 wafer_mix_completion_lb_37_5: +1 wafer_completion_37 -1 mix_pair_completion_5 -10000 wafer_to_mix_pair_37_5
  >= -10000
 wafer_mix_completion_ub_37_5: +1 wafer_completion_37 -1 mix_pair_completion_5 +10000 wafer_to_mix_pair_37_5
  <= +10000
 wafer_mix_completion_lb_37_6: +1 wafer_completion_37 -1 mix_pair_completion_6 -10000 wafer_to_mix_pair_37_6
  >= -10000
 wafer_mix_completion_ub_37_6: +1 wafer_completion_37 -1 mix_pair_completion_6 +10000 wafer_to_mix_pair_37_6
  <= +10000
 wafer_mix_completion_lb_37_7: +1 wafer_completion_37 -1 mix_pair_completion_7 -10000 wafer_to_mix_pair_37_7
  >= -10000
 wafer_mix_completion_ub_37_7: +1 wafer_completion_37 -1 mix_pair_completion_7 +10000 wafer_to_mix_pair_37_7
  <= +10000
 wafer_mix_completion_lb_37_8: +1 wafer_completion_37 -1 mix_pair_completion_8 -10000 wafer_to_mix_pair_37_8
  >= -10000
 wafer_mix_completion_ub_37_8: +1 wafer_completion_37 -1 mix_pair_completion_8 +10000 wafer_to_mix_pair_37_8
  <= +10000
 wafer_mix_completion_lb_38_1: +1 wafer_completion_38 -1 mix_pair_completion_1 -10000 wafer_to_mix_pair_38_1
  >= -10000
 wafer_mix_completion_ub_38_1: +1 wafer_completion_38 -1 mix_pair_completion_1 +10000 wafer_to_mix_pair_38_1
  <= +10000
 wafer_mix_completion_lb_38_2: +1 wafer_completion_38 -1 mix_pair_completion_2 -10000 wafer_to_mix_pair_38_2
  >= -10000
 wafer_mix_completion_ub_38_2: +1 wafer_completion_38 -1 mix_pair_completion_2 +10000 wafer_to_mix_pair_38_2
  <= +10000
 wafer_mix_completion_lb_38_3: +1 wafer_completion_38 -1 mix_pair_completion_3 -10000 wafer_to_mix_pair_38_3
  >= -10000
 wafer_mix_completion_ub_38_3: +1 wafer_completion_38 -1 mix_pair_completion_3 +10000 wafer_to_mix_pair_38_3
  <= +10000
 wafer_mix_completion_lb_38_4: +1 wafer_completion_38 -1 mix_pair_completion_4 -10000 wafer_to_mix_pair_38_4
  >= -10000
 wafer_mix_completion_ub_38_4: +1 wafer_completion_38 -1 mix_pair_completion_4 +10000 wafer_to_mix_pair_38_4
  <= +10000
 wafer_mix_completion_lb_38_5: +1 wafer_completion_38 -1 mix_pair_completion_5 -10000 wafer_to_mix_pair_38_5
  >= -10000
 wafer_mix_completion_ub_38_5: +1 wafer_completion_38 -1 mix_pair_completion_5 +10000 wafer_to_mix_pair_38_5
  <= +10000
 wafer_mix_completion_lb_38_6: +1 wafer_completion_38 -1 mix_pair_completion_6 -10000 wafer_to_mix_pair_38_6
  >= -10000
 wafer_mix_completion_ub_38_6: +1 wafer_completion_38 -1 mix_pair_completion_6 +10000 wafer_to_mix_pair_38_6
  <= +10000
 wafer_mix_completion_lb_38_7: +1 wafer_completion_38 -1 mix_pair_completion_7 -10000 wafer_to_mix_pair_38_7
  >= -10000
 wafer_mix_completion_ub_38_7: +1 wafer_completion_38 -1 mix_pair_completion_7 +10000 wafer_to_mix_pair_38_7
  <= +10000
 wafer_mix_completion_lb_38_8: +1 wafer_completion_38 -1 mix_pair_completion_8 -10000 wafer_to_mix_pair_38_8
  >= -10000
 wafer_mix_completion_ub_38_8: +1 wafer_completion_38 -1 mix_pair_completion_8 +10000 wafer_to_mix_pair_38_8
  <= +10000
 wafer_mix_completion_lb_39_1: +1 wafer_completion_39 -1 mix_pair_completion_1 -10000 wafer_to_mix_pair_39_1
  >= -10000
 wafer_mix_completion_ub_39_1: +1 wafer_completion_39 -1 mix_pair_completion_1 +10000 wafer_to_mix_pair_39_1
  <= +10000
 wafer_mix_completion_lb_39_2: +1 wafer_completion_39 -1 mix_pair_completion_2 -10000 wafer_to_mix_pair_39_2
  >= -10000
 wafer_mix_completion_ub_39_2: +1 wafer_completion_39 -1 mix_pair_completion_2 +10000 wafer_to_mix_pair_39_2
  <= +10000
 wafer_mix_completion_lb_39_3: +1 wafer_completion_39 -1 mix_pair_completion_3 -10000 wafer_to_mix_pair_39_3
  >= -10000
 wafer_mix_completion_ub_39_3: +1 wafer_completion_39 -1 mix_pair_completion_3 +10000 wafer_to_mix_pair_39_3
  <= +10000
 wafer_mix_completion_lb_39_4: +1 wafer_completion_39 -1 mix_pair_completion_4 -10000 wafer_to_mix_pair_39_4
  >= -10000
 wafer_mix_completion_ub_39_4: +1 wafer_completion_39 -1 mix_pair_completion_4 +10000 wafer_to_mix_pair_39_4
  <= +10000
 wafer_mix_completion_lb_39_5: +1 wafer_completion_39 -1 mix_pair_completion_5 -10000 wafer_to_mix_pair_39_5
  >= -10000
 wafer_mix_completion_ub_39_5: +1 wafer_completion_39 -1 mix_pair_completion_5 +10000 wafer_to_mix_pair_39_5
  <= +10000
 wafer_mix_completion_lb_39_6: +1 wafer_completion_39 -1 mix_pair_completion_6 -10000 wafer_to_mix_pair_39_6
  >= -10000
 wafer_mix_completion_ub_39_6: +1 wafer_completion_39 -1 mix_pair_completion_6 +10000 wafer_to_mix_pair_39_6
  <= +10000
 wafer_mix_completion_lb_39_7: +1 wafer_completion_39 -1 mix_pair_completion_7 -10000 wafer_to_mix_pair_39_7
  >= -10000
 wafer_mix_completion_ub_39_7: +1 wafer_completion_39 -1 mix_pair_completion_7 +10000 wafer_to_mix_pair_39_7
  <= +10000
 wafer_mix_completion_lb_39_8: +1 wafer_completion_39 -1 mix_pair_completion_8 -10000 wafer_to_mix_pair_39_8
  >= -10000
 wafer_mix_completion_ub_39_8: +1 wafer_completion_39 -1 mix_pair_completion_8 +10000 wafer_to_mix_pair_39_8
  <= +10000
 cmax_ge_wafer_1: +1 c_max -1 wafer_completion_1 >= +0
 cmax_ge_wafer_2: +1 c_max -1 wafer_completion_2 >= +0
 cmax_ge_wafer_3: +1 c_max -1 wafer_completion_3 >= +0
 cmax_ge_wafer_4: +1 c_max -1 wafer_completion_4 >= +0
 cmax_ge_wafer_5: +1 c_max -1 wafer_completion_5 >= +0
 cmax_ge_wafer_6: +1 c_max -1 wafer_completion_6 >= +0
 cmax_ge_wafer_7: +1 c_max -1 wafer_completion_7 >= +0
 cmax_ge_wafer_8: +1 c_max -1 wafer_completion_8 >= +0
 cmax_ge_wafer_9: +1 c_max -1 wafer_completion_9 >= +0
 cmax_ge_wafer_10: +1 c_max -1 wafer_completion_10 >= +0
 cmax_ge_wafer_11: +1 c_max -1 wafer_completion_11 >= +0
 cmax_ge_wafer_12: +1 c_max -1 wafer_completion_12 >= +0
 cmax_ge_wafer_13: +1 c_max -1 wafer_completion_13 >= +0
 cmax_ge_wafer_14: +1 c_max -1 wafer_completion_14 >= +0
 cmax_ge_wafer_15: +1 c_max -1 wafer_completion_15 >= +0
 cmax_ge_wafer_16: +1 c_max -1 wafer_completion_16 >= +0
 cmax_ge_wafer_17: +1 c_max -1 wafer_completion_17 >= +0
 cmax_ge_wafer_18: +1 c_max -1 wafer_completion_18 >= +0
 cmax_ge_wafer_19: +1 c_max -1 wafer_completion_19 >= +0
 cmax_ge_wafer_20: +1 c_max -1 wafer_completion_20 >= +0
 cmax_ge_wafer_21: +1 c_max -1 wafer_completion_21 >= +0
 cmax_ge_wafer_22: +1 c_max -1 wafer_completion_22 >= +0
 cmax_ge_wafer_23: +1 c_max -1 wafer_completion_23 >= +0
 cmax_ge_wafer_24: +1 c_max -1 wafer_completion_24 >= +0
 cmax_ge_wafer_25: +1 c_max -1 wafer_completion_25 >= +0
 cmax_ge_wafer_26: +1 c_max -1 wafer_completion_26 >= +0
 cmax_ge_wafer_27: +1 c_max -1 wafer_completion_27 >= +0
 cmax_ge_wafer_28: +1 c_max -1 wafer_completion_28 >= +0
 cmax_ge_wafer_29: +1 c_max -1 wafer_completion_29 >= +0
 cmax_ge_wafer_30: +1 c_max -1 wafer_completion_30 >= +0
 cmax_ge_wafer_31: +1 c_max -1 wafer_completion_31 >= +0
 cmax_ge_wafer_32: +1 c_max -1 wafer_completion_32 >= +0
 cmax_ge_wafer_33: +1 c_max -1 wafer_completion_33 >= +0
 cmax_ge_wafer_34: +1 c_max -1 wafer_completion_34 >= +0
 cmax_ge_wafer_35: +1 c_max -1 wafer_completion_35 >= +0
 cmax_ge_wafer_36: +1 c_max -1 wafer_completion_36 >= +0
 cmax_ge_wafer_37: +1 c_max -1 wafer_completion_37 >= +0
 cmax_ge_wafer_38: +1 c_max -1 wafer_completion_38 >= +0
 cmax_ge_wafer_39: +1 c_max -1 wafer_completion_39 >= +0
 full_order_symmetry_1_1: +1 assign_full_1_1_1 +2 assign_full_2_1_1 +3 assign_full_3_1_1 +4 assign_full_4_1_1
  +5 assign_full_5_1_1 +6 assign_full_6_1_1 +7 assign_full_7_1_1 +8 assign_full_8_1_1 +9 assign_full_9_1_1
  +10 assign_full_10_1_1 +11 assign_full_11_1_1 +12 assign_full_12_1_1 -1 assign_full_1_1_2 -2 assign_full_2_1_2
  -3 assign_full_3_1_2 -4 assign_full_4_1_2 -5 assign_full_5_1_2 -6 assign_full_6_1_2 -7 assign_full_7_1_2
  -8 assign_full_8_1_2 -9 assign_full_9_1_2 -10 assign_full_10_1_2 -11 assign_full_11_1_2 -12 assign_full_12_1_2
  +10000 full_slot_used_1_1 +10000 full_slot_used_1_2 <= +20000
 full_order_symmetry_1_2: +1 assign_full_1_1_2 +2 assign_full_2_1_2 +3 assign_full_3_1_2 +4 assign_full_4_1_2
  +5 assign_full_5_1_2 +6 assign_full_6_1_2 +7 assign_full_7_1_2 +8 assign_full_8_1_2 +9 assign_full_9_1_2
  +10 assign_full_10_1_2 +11 assign_full_11_1_2 +12 assign_full_12_1_2 -1 assign_full_1_1_3 -2 assign_full_2_1_3
  -3 assign_full_3_1_3 -4 assign_full_4_1_3 -5 assign_full_5_1_3 -6 assign_full_6_1_3 -7 assign_full_7_1_3
  -8 assign_full_8_1_3 -9 assign_full_9_1_3 -10 assign_full_10_1_3 -11 assign_full_11_1_3 -12 assign_full_12_1_3
  +10000 full_slot_used_1_2 +10000 full_slot_used_1_3 <= +20000
 full_order_symmetry_1_3: +1 assign_full_1_1_3 +2 assign_full_2_1_3 +3 assign_full_3_1_3 +4 assign_full_4_1_3
  +5 assign_full_5_1_3 +6 assign_full_6_1_3 +7 assign_full_7_1_3 +8 assign_full_8_1_3 +9 assign_full_9_1_3
  +10 assign_full_10_1_3 +11 assign_full_11_1_3 +12 assign_full_12_1_3 -1 assign_full_1_1_4 -2 assign_full_2_1_4
  -3 assign_full_3_1_4 -4 assign_full_4_1_4 -5 assign_full_5_1_4 -6 assign_full_6_1_4 -7 assign_full_7_1_4
  -8 assign_full_8_1_4 -9 assign_full_9_1_4 -10 assign_full_10_1_4 -11 assign_full_11_1_4 -12 assign_full_12_1_4
  +10000 full_slot_used_1_3 +10000 full_slot_used_1_4 <= +20000
 full_order_symmetry_1_4: +1 assign_full_1_1_4 +2 assign_full_2_1_4 +3 assign_full_3_1_4 +4 assign_full_4_1_4
  +5 assign_full_5_1_4 +6 assign_full_6_1_4 +7 assign_full_7_1_4 +8 assign_full_8_1_4 +9 assign_full_9_1_4
  +10 assign_full_10_1_4 +11 assign_full_11_1_4 +12 assign_full_12_1_4 -1 assign_full_1_1_5 -2 assign_full_2_1_5
  -3 assign_full_3_1_5 -4 assign_full_4_1_5 -5 assign_full_5_1_5 -6 assign_full_6_1_5 -7 assign_full_7_1_5
  -8 assign_full_8_1_5 -9 assign_full_9_1_5 -10 assign_full_10_1_5 -11 assign_full_11_1_5 -12 assign_full_12_1_5
  +10000 full_slot_used_1_4 +10000 full_slot_used_1_5 <= +20000
 full_order_symmetry_1_5: +1 assign_full_1_1_5 +2 assign_full_2_1_5 +3 assign_full_3_1_5 +4 assign_full_4_1_5
  +5 assign_full_5_1_5 +6 assign_full_6_1_5 +7 assign_full_7_1_5 +8 assign_full_8_1_5 +9 assign_full_9_1_5
  +10 assign_full_10_1_5 +11 assign_full_11_1_5 +12 assign_full_12_1_5 -1 assign_full_1_1_6 -2 assign_full_2_1_6
  -3 assign_full_3_1_6 -4 assign_full_4_1_6 -5 assign_full_5_1_6 -6 assign_full_6_1_6 -7 assign_full_7_1_6
  -8 assign_full_8_1_6 -9 assign_full_9_1_6 -10 assign_full_10_1_6 -11 assign_full_11_1_6 -12 assign_full_12_1_6
  +10000 full_slot_used_1_5 +10000 full_slot_used_1_6 <= +20000
 full_order_symmetry_1_6: +1 assign_full_1_1_6 +2 assign_full_2_1_6 +3 assign_full_3_1_6 +4 assign_full_4_1_6
  +5 assign_full_5_1_6 +6 assign_full_6_1_6 +7 assign_full_7_1_6 +8 assign_full_8_1_6 +9 assign_full_9_1_6
  +10 assign_full_10_1_6 +11 assign_full_11_1_6 +12 assign_full_12_1_6 -1 assign_full_1_1_7 -2 assign_full_2_1_7
  -3 assign_full_3_1_7 -4 assign_full_4_1_7 -5 assign_full_5_1_7 -6 assign_full_6_1_7 -7 assign_full_7_1_7
  -8 assign_full_8_1_7 -9 assign_full_9_1_7 -10 assign_full_10_1_7 -11 assign_full_11_1_7 -12 assign_full_12_1_7
  +10000 full_slot_used_1_6 +10000 full_slot_used_1_7 <= +20000
 full_order_symmetry_1_7: +1 assign_full_1_1_7 +2 assign_full_2_1_7 +3 assign_full_3_1_7 +4 assign_full_4_1_7
  +5 assign_full_5_1_7 +6 assign_full_6_1_7 +7 assign_full_7_1_7 +8 assign_full_8_1_7 +9 assign_full_9_1_7
  +10 assign_full_10_1_7 +11 assign_full_11_1_7 +12 assign_full_12_1_7 -1 assign_full_1_1_8 -2 assign_full_2_1_8
  -3 assign_full_3_1_8 -4 assign_full_4_1_8 -5 assign_full_5_1_8 -6 assign_full_6_1_8 -7 assign_full_7_1_8
  -8 assign_full_8_1_8 -9 assign_full_9_1_8 -10 assign_full_10_1_8 -11 assign_full_11_1_8 -12 assign_full_12_1_8
  +10000 full_slot_used_1_7 +10000 full_slot_used_1_8 <= +20000
 full_order_symmetry_1_8: +1 assign_full_1_1_8 +2 assign_full_2_1_8 +3 assign_full_3_1_8 +4 assign_full_4_1_8
  +5 assign_full_5_1_8 +6 assign_full_6_1_8 +7 assign_full_7_1_8 +8 assign_full_8_1_8 +9 assign_full_9_1_8
  +10 assign_full_10_1_8 +11 assign_full_11_1_8 +12 assign_full_12_1_8 -1 assign_full_1_1_9 -2 assign_full_2_1_9
  -3 assign_full_3_1_9 -4 assign_full_4_1_9 -5 assign_full_5_1_9 -6 assign_full_6_1_9 -7 assign_full_7_1_9
  -8 assign_full_8_1_9 -9 assign_full_9_1_9 -10 assign_full_10_1_9 -11 assign_full_11_1_9 -12 assign_full_12_1_9
  +10000 full_slot_used_1_8 +10000 full_slot_used_1_9 <= +20000
 full_order_symmetry_1_9: +1 assign_full_1_1_9 +2 assign_full_2_1_9 +3 assign_full_3_1_9 +4 assign_full_4_1_9
  +5 assign_full_5_1_9 +6 assign_full_6_1_9 +7 assign_full_7_1_9 +8 assign_full_8_1_9 +9 assign_full_9_1_9
  +10 assign_full_10_1_9 +11 assign_full_11_1_9 +12 assign_full_12_1_9 -1 assign_full_1_1_10 -2 assign_full_2_1_10
  -3 assign_full_3_1_10 -4 assign_full_4_1_10 -5 assign_full_5_1_10 -6 assign_full_6_1_10 -7 assign_full_7_1_10
  -8 assign_full_8_1_10 -9 assign_full_9_1_10 -10 assign_full_10_1_10 -11 assign_full_11_1_10 -12 assign_full_12_1_10
  +10000 full_slot_used_1_9 +10000 full_slot_used_1_10 <= +20000
 mix_order_symmetry_1_1: +1 assign_mix_1_1_1 +2 assign_mix_2_1_1 +3 assign_mix_3_1_1 +4 assign_mix_4_1_1
  +5 assign_mix_5_1_1 +6 assign_mix_6_1_1 +7 assign_mix_7_1_1 +8 assign_mix_8_1_1 -1 assign_mix_1_1_2
  -2 assign_mix_2_1_2 -3 assign_mix_3_1_2 -4 assign_mix_4_1_2 -5 assign_mix_5_1_2 -6 assign_mix_6_1_2
  -7 assign_mix_7_1_2 -8 assign_mix_8_1_2 +10000 mix_pos_used_1_1 +10000 mix_pos_used_1_2 <= +20000
 mix_order_symmetry_1_2: +1 assign_mix_1_1_2 +2 assign_mix_2_1_2 +3 assign_mix_3_1_2 +4 assign_mix_4_1_2
  +5 assign_mix_5_1_2 +6 assign_mix_6_1_2 +7 assign_mix_7_1_2 +8 assign_mix_8_1_2 -1 assign_mix_1_1_3
  -2 assign_mix_2_1_3 -3 assign_mix_3_1_3 -4 assign_mix_4_1_3 -5 assign_mix_5_1_3 -6 assign_mix_6_1_3
  -7 assign_mix_7_1_3 -8 assign_mix_8_1_3 +10000 mix_pos_used_1_2 +10000 mix_pos_used_1_3 <= +20000
 mix_order_symmetry_1_3: +1 assign_mix_1_1_3 +2 assign_mix_2_1_3 +3 assign_mix_3_1_3 +4 assign_mix_4_1_3
  +5 assign_mix_5_1_3 +6 assign_mix_6_1_3 +7 assign_mix_7_1_3 +8 assign_mix_8_1_3 -1 assign_mix_1_1_4
  -2 assign_mix_2_1_4 -3 assign_mix_3_1_4 -4 assign_mix_4_1_4 -5 assign_mix_5_1_4 -6 assign_mix_6_1_4
  -7 assign_mix_7_1_4 -8 assign_mix_8_1_4 +10000 mix_pos_used_1_3 +10000 mix_pos_used_1_4 <= +20000
 mix_order_symmetry_1_4: +1 assign_mix_1_1_4 +2 assign_mix_2_1_4 +3 assign_mix_3_1_4 +4 assign_mix_4_1_4
  +5 assign_mix_5_1_4 +6 assign_mix_6_1_4 +7 assign_mix_7_1_4 +8 assign_mix_8_1_4 -1 assign_mix_1_1_5
  -2 assign_mix_2_1_5 -3 assign_mix_3_1_5 -4 assign_mix_4_1_5 -5 assign_mix_5_1_5 -6 assign_mix_6_1_5
  -7 assign_mix_7_1_5 -8 assign_mix_8_1_5 +10000 mix_pos_used_1_4 +10000 mix_pos_used_1_5 <= +20000
 mix_order_symmetry_1_5: +1 assign_mix_1_1_5 +2 assign_mix_2_1_5 +3 assign_mix_3_1_5 +4 assign_mix_4_1_5
  +5 assign_mix_5_1_5 +6 assign_mix_6_1_5 +7 assign_mix_7_1_5 +8 assign_mix_8_1_5 -1 assign_mix_1_1_6
  -2 assign_mix_2_1_6 -3 assign_mix_3_1_6 -4 assign_mix_4_1_6 -5 assign_mix_5_1_6 -6 assign_mix_6_1_6
  -7 assign_mix_7_1_6 -8 assign_mix_8_1_6 +10000 mix_pos_used_1_5 +10000 mix_pos_used_1_6 <= +20000
 mix_order_symmetry_1_6: +1 assign_mix_1_1_6 +2 assign_mix_2_1_6 +3 assign_mix_3_1_6 +4 assign_mix_4_1_6
  +5 assign_mix_5_1_6 +6 assign_mix_6_1_6 +7 assign_mix_7_1_6 +8 assign_mix_8_1_6 -1 assign_mix_1_1_7
  -2 assign_mix_2_1_7 -3 assign_mix_3_1_7 -4 assign_mix_4_1_7 -5 assign_mix_5_1_7 -6 assign_mix_6_1_7
  -7 assign_mix_7_1_7 -8 assign_mix_8_1_7 +10000 mix_pos_used_1_6 +10000 mix_pos_used_1_7 <= +20000
 mix_order_symmetry_1_7: +1 assign_mix_1_1_7 +2 assign_mix_2_1_7 +3 assign_mix_3_1_7 +4 assign_mix_4_1_7
  +5 assign_mix_5_1_7 +6 assign_mix_6_1_7 +7 assign_mix_7_1_7 +8 assign_mix_8_1_7 -1 assign_mix_1_1_8
  -2 assign_mix_2_1_8 -3 assign_mix_3_1_8 -4 assign_mix_4_1_8 -5 assign_mix_5_1_8 -6 assign_mix_6_1_8
  -7 assign_mix_7_1_8 -8 assign_mix_8_1_8 +10000 mix_pos_used_1_7 +10000 mix_pos_used_1_8 <= +20000
 full_order_symmetry_2_1: +1 assign_full_1_2_1 +2 assign_full_2_2_1 +3 assign_full_3_2_1 +4 assign_full_4_2_1
  +5 assign_full_5_2_1 +6 assign_full_6_2_1 +7 assign_full_7_2_1 +8 assign_full_8_2_1 +9 assign_full_9_2_1
  +10 assign_full_10_2_1 +11 assign_full_11_2_1 +12 assign_full_12_2_1 -1 assign_full_1_2_2 -2 assign_full_2_2_2
  -3 assign_full_3_2_2 -4 assign_full_4_2_2 -5 assign_full_5_2_2 -6 assign_full_6_2_2 -7 assign_full_7_2_2
  -8 assign_full_8_2_2 -9 assign_full_9_2_2 -10 assign_full_10_2_2 -11 assign_full_11_2_2 -12 assign_full_12_2_2
  +10000 full_slot_used_2_1 +10000 full_slot_used_2_2 <= +20000
 full_order_symmetry_2_2: +1 assign_full_1_2_2 +2 assign_full_2_2_2 +3 assign_full_3_2_2 +4 assign_full_4_2_2
  +5 assign_full_5_2_2 +6 assign_full_6_2_2 +7 assign_full_7_2_2 +8 assign_full_8_2_2 +9 assign_full_9_2_2
  +10 assign_full_10_2_2 +11 assign_full_11_2_2 +12 assign_full_12_2_2 -1 assign_full_1_2_3 -2 assign_full_2_2_3
  -3 assign_full_3_2_3 -4 assign_full_4_2_3 -5 assign_full_5_2_3 -6 assign_full_6_2_3 -7 assign_full_7_2_3
  -8 assign_full_8_2_3 -9 assign_full_9_2_3 -10 assign_full_10_2_3 -11 assign_full_11_2_3 -12 assign_full_12_2_3
  +10000 full_slot_used_2_2 +10000 full_slot_used_2_3 <= +20000
 full_order_symmetry_2_3: +1 assign_full_1_2_3 +2 assign_full_2_2_3 +3 assign_full_3_2_3 +4 assign_full_4_2_3
  +5 assign_full_5_2_3 +6 assign_full_6_2_3 +7 assign_full_7_2_3 +8 assign_full_8_2_3 +9 assign_full_9_2_3
  +10 assign_full_10_2_3 +11 assign_full_11_2_3 +12 assign_full_12_2_3 -1 assign_full_1_2_4 -2 assign_full_2_2_4
  -3 assign_full_3_2_4 -4 assign_full_4_2_4 -5 assign_full_5_2_4 -6 assign_full_6_2_4 -7 assign_full_7_2_4
  -8 assign_full_8_2_4 -9 assign_full_9_2_4 -10 assign_full_10_2_4 -11 assign_full_11_2_4 -12 assign_full_12_2_4
  +10000 full_slot_used_2_3 +10000 full_slot_used_2_4 <= +20000
 full_order_symmetry_2_4: +1 assign_full_1_2_4 +2 assign_full_2_2_4 +3 assign_full_3_2_4 +4 assign_full_4_2_4
  +5 assign_full_5_2_4 +6 assign_full_6_2_4 +7 assign_full_7_2_4 +8 assign_full_8_2_4 +9 assign_full_9_2_4
  +10 assign_full_10_2_4 +11 assign_full_11_2_4 +12 assign_full_12_2_4 -1 assign_full_1_2_5 -2 assign_full_2_2_5
  -3 assign_full_3_2_5 -4 assign_full_4_2_5 -5 assign_full_5_2_5 -6 assign_full_6_2_5 -7 assign_full_7_2_5
  -8 assign_full_8_2_5 -9 assign_full_9_2_5 -10 assign_full_10_2_5 -11 assign_full_11_2_5 -12 assign_full_12_2_5
  +10000 full_slot_used_2_4 +10000 full_slot_used_2_5 <= +20000
 full_order_symmetry_2_5: +1 assign_full_1_2_5 +2 assign_full_2_2_5 +3 assign_full_3_2_5 +4 assign_full_4_2_5
  +5 assign_full_5_2_5 +6 assign_full_6_2_5 +7 assign_full_7_2_5 +8 assign_full_8_2_5 +9 assign_full_9_2_5
  +10 assign_full_10_2_5 +11 assign_full_11_2_5 +12 assign_full_12_2_5 -1 assign_full_1_2_6 -2 assign_full_2_2_6
  -3 assign_full_3_2_6 -4 assign_full_4_2_6 -5 assign_full_5_2_6 -6 assign_full_6_2_6 -7 assign_full_7_2_6
  -8 assign_full_8_2_6 -9 assign_full_9_2_6 -10 assign_full_10_2_6 -11 assign_full_11_2_6 -12 assign_full_12_2_6
  +10000 full_slot_used_2_5 +10000 full_slot_used_2_6 <= +20000
 full_order_symmetry_2_6: +1 assign_full_1_2_6 +2 assign_full_2_2_6 +3 assign_full_3_2_6 +4 assign_full_4_2_6
  +5 assign_full_5_2_6 +6 assign_full_6_2_6 +7 assign_full_7_2_6 +8 assign_full_8_2_6 +9 assign_full_9_2_6
  +10 assign_full_10_2_6 +11 assign_full_11_2_6 +12 assign_full_12_2_6 -1 assign_full_1_2_7 -2 assign_full_2_2_7
  -3 assign_full_3_2_7 -4 assign_full_4_2_7 -5 assign_full_5_2_7 -6 assign_full_6_2_7 -7 assign_full_7_2_7
  -8 assign_full_8_2_7 -9 assign_full_9_2_7 -10 assign_full_10_2_7 -11 assign_full_11_2_7 -12 assign_full_12_2_7
  +10000 full_slot_used_2_6 +10000 full_slot_used_2_7 <= +20000
 full_order_symmetry_2_7: +1 assign_full_1_2_7 +2 assign_full_2_2_7 +3 assign_full_3_2_7 +4 assign_full_4_2_7
  +5 assign_full_5_2_7 +6 assign_full_6_2_7 +7 assign_full_7_2_7 +8 assign_full_8_2_7 +9 assign_full_9_2_7
  +10 assign_full_10_2_7 +11 assign_full_11_2_7 +12 assign_full_12_2_7 -1 assign_full_1_2_8 -2 assign_full_2_2_8
  -3 assign_full_3_2_8 -4 assign_full_4_2_8 -5 assign_full_5_2_8 -6 assign_full_6_2_8 -7 assign_full_7_2_8
  -8 assign_full_8_2_8 -9 assign_full_9_2_8 -10 assign_full_10_2_8 -11 assign_full_11_2_8 -12 assign_full_12_2_8
  +10000 full_slot_used_2_7 +10000 full_slot_used_2_8 <= +20000
 full_order_symmetry_2_8: +1 assign_full_1_2_8 +2 assign_full_2_2_8 +3 assign_full_3_2_8 +4 assign_full_4_2_8
  +5 assign_full_5_2_8 +6 assign_full_6_2_8 +7 assign_full_7_2_8 +8 assign_full_8_2_8 +9 assign_full_9_2_8
  +10 assign_full_10_2_8 +11 assign_full_11_2_8 +12 assign_full_12_2_8 -1 assign_full_1_2_9 -2 assign_full_2_2_9
  -3 assign_full_3_2_9 -4 assign_full_4_2_9 -5 assign_full_5_2_9 -6 assign_full_6_2_9 -7 assign_full_7_2_9
  -8 assign_full_8_2_9 -9 assign_full_9_2_9 -10 assign_full_10_2_9 -11 assign_full_11_2_9 -12 assign_full_12_2_9
  +10000 full_slot_used_2_8 +10000 full_slot_used_2_9 <= +20000
 full_order_symmetry_2_9: +1 assign_full_1_2_9 +2 assign_full_2_2_9 +3 assign_full_3_2_9 +4 assign_full_4_2_9
  +5 assign_full_5_2_9 +6 assign_full_6_2_9 +7 assign_full_7_2_9 +8 assign_full_8_2_9 +9 assign_full_9_2_9
  +10 assign_full_10_2_9 +11 assign_full_11_2_9 +12 assign_full_12_2_9 -1 assign_full_1_2_10 -2 assign_full_2_2_10
  -3 assign_full_3_2_10 -4 assign_full_4_2_10 -5 assign_full_5_2_10 -6 assign_full_6_2_10 -7 assign_full_7_2_10
  -8 assign_full_8_2_10 -9 assign_full_9_2_10 -10 assign_full_10_2_10 -11 assign_full_11_2_10 -12 assign_full_12_2_10
  +10000 full_slot_used_2_9 +10000 full_slot_used_2_10 <= +20000
 mix_order_symmetry_2_1: +1 assign_mix_1_2_1 +2 assign_mix_2_2_1 +3 assign_mix_3_2_1 +4 assign_mix_4_2_1
  +5 assign_mix_5_2_1 +6 assign_mix_6_2_1 +7 assign_mix_7_2_1 +8 assign_mix_8_2_1 -1 assign_mix_1_2_2
  -2 assign_mix_2_2_2 -3 assign_mix_3_2_2 -4 assign_mix_4_2_2 -5 assign_mix_5_2_2 -6 assign_mix_6_2_2
  -7 assign_mix_7_2_2 -8 assign_mix_8_2_2 +10000 mix_pos_used_2_1 +10000 mix_pos_used_2_2 <= +20000
 mix_order_symmetry_2_2: +1 assign_mix_1_2_2 +2 assign_mix_2_2_2 +3 assign_mix_3_2_2 +4 assign_mix_4_2_2
  +5 assign_mix_5_2_2 +6 assign_mix_6_2_2 +7 assign_mix_7_2_2 +8 assign_mix_8_2_2 -1 assign_mix_1_2_3
  -2 assign_mix_2_2_3 -3 assign_mix_3_2_3 -4 assign_mix_4_2_3 -5 assign_mix_5_2_3 -6 assign_mix_6_2_3
  -7 assign_mix_7_2_3 -8 assign_mix_8_2_3 +10000 mix_pos_used_2_2 +10000 mix_pos_used_2_3 <= +20000
 mix_order_symmetry_2_3: +1 assign_mix_1_2_3 +2 assign_mix_2_2_3 +3 assign_mix_3_2_3 +4 assign_mix_4_2_3
  +5 assign_mix_5_2_3 +6 assign_mix_6_2_3 +7 assign_mix_7_2_3 +8 assign_mix_8_2_3 -1 assign_mix_1_2_4
  -2 assign_mix_2_2_4 -3 assign_mix_3_2_4 -4 assign_mix_4_2_4 -5 assign_mix_5_2_4 -6 assign_mix_6_2_4
  -7 assign_mix_7_2_4 -8 assign_mix_8_2_4 +10000 mix_pos_used_2_3 +10000 mix_pos_used_2_4 <= +20000
 mix_order_symmetry_2_4: +1 assign_mix_1_2_4 +2 assign_mix_2_2_4 +3 assign_mix_3_2_4 +4 assign_mix_4_2_4
  +5 assign_mix_5_2_4 +6 assign_mix_6_2_4 +7 assign_mix_7_2_4 +8 assign_mix_8_2_4 -1 assign_mix_1_2_5
  -2 assign_mix_2_2_5 -3 assign_mix_3_2_5 -4 assign_mix_4_2_5 -5 assign_mix_5_2_5 -6 assign_mix_6_2_5
  -7 assign_mix_7_2_5 -8 assign_mix_8_2_5 +10000 mix_pos_used_2_4 +10000 mix_pos_used_2_5 <= +20000
 mix_order_symmetry_2_5: +1 assign_mix_1_2_5 +2 assign_mix_2_2_5 +3 assign_mix_3_2_5 +4 assign_mix_4_2_5
  +5 assign_mix_5_2_5 +6 assign_mix_6_2_5 +7 assign_mix_7_2_5 +8 assign_mix_8_2_5 -1 assign_mix_1_2_6
  -2 assign_mix_2_2_6 -3 assign_mix_3_2_6 -4 assign_mix_4_2_6 -5 assign_mix_5_2_6 -6 assign_mix_6_2_6
  -7 assign_mix_7_2_6 -8 assign_mix_8_2_6 +10000 mix_pos_used_2_5 +10000 mix_pos_used_2_6 <= +20000
 mix_order_symmetry_2_6: +1 assign_mix_1_2_6 +2 assign_mix_2_2_6 +3 assign_mix_3_2_6 +4 assign_mix_4_2_6
  +5 assign_mix_5_2_6 +6 assign_mix_6_2_6 +7 assign_mix_7_2_6 +8 assign_mix_8_2_6 -1 assign_mix_1_2_7
  -2 assign_mix_2_2_7 -3 assign_mix_3_2_7 -4 assign_mix_4_2_7 -5 assign_mix_5_2_7 -6 assign_mix_6_2_7
  -7 assign_mix_7_2_7 -8 assign_mix_8_2_7 +10000 mix_pos_used_2_6 +10000 mix_pos_used_2_7 <= +20000
 mix_order_symmetry_2_7: +1 assign_mix_1_2_7 +2 assign_mix_2_2_7 +3 assign_mix_3_2_7 +4 assign_mix_4_2_7
  +5 assign_mix_5_2_7 +6 assign_mix_6_2_7 +7 assign_mix_7_2_7 +8 assign_mix_8_2_7 -1 assign_mix_1_2_8
  -2 assign_mix_2_2_8 -3 assign_mix_3_2_8 -4 assign_mix_4_2_8 -5 assign_mix_5_2_8 -6 assign_mix_6_2_8
  -7 assign_mix_7_2_8 -8 assign_mix_8_2_8 +10000 mix_pos_used_2_7 +10000 mix_pos_used_2_8 <= +20000
 pm_activity_symmetry: +1 full_slot_used_1_1 +1 full_slot_used_1_2 +1 full_slot_used_1_3 +1 full_slot_used_1_4
  +1 full_slot_used_1_5 +1 full_slot_used_1_6 +1 full_slot_used_1_7 +1 full_slot_used_1_8 +1 full_slot_used_1_9
  +1 full_slot_used_1_10 +1 mix_pos_used_1_1 +1 mix_pos_used_1_2 +1 mix_pos_used_1_3 +1 mix_pos_used_1_4
  +1 mix_pos_used_1_5 +1 mix_pos_used_1_6 +1 mix_pos_used_1_7 +1 mix_pos_used_1_8 -1 full_slot_used_2_1
  -1 full_slot_used_2_2 -1 full_slot_used_2_3 -1 full_slot_used_2_4 -1 full_slot_used_2_5 -1 full_slot_used_2_6
  -1 full_slot_used_2_7 -1 full_slot_used_2_8 -1 full_slot_used_2_9 -1 full_slot_used_2_10 -1 mix_pos_used_2_1
  -1 mix_pos_used_2_2 -1 mix_pos_used_2_3 -1 mix_pos_used_2_4 -1 mix_pos_used_2_5 -1 mix_pos_used_2_6
  -1 mix_pos_used_2_7 -1 mix_pos_used_2_8 >= +0
Bounds
 0 <= wafer_to_full_pair_1_1 <= 1
 0 <= wafer_to_full_pair_1_2 <= 1
 0 <= wafer_to_full_pair_1_3 <= 1
 0 <= wafer_to_full_pair_1_4 <= 1
 0 <= wafer_to_full_pair_1_5 <= 1
 0 <= wafer_to_full_pair_1_6 <= 1
 0 <= wafer_to_full_pair_1_7 <= 1
 0 <= wafer_to_full_pair_1_8 <= 1
 0 <= wafer_to_full_pair_1_9 <= 1
 0 <= wafer_to_full_pair_1_10 <= 1
 0 <= wafer_to_full_pair_1_11 <= 1
 0 <= wafer_to_full_pair_1_12 <= 1
 0 <= wafer_to_full_pair_2_1 <= 1
 0 <= wafer_to_full_pair_2_2 <= 1
 0 <= wafer_to_full_pair_2_3 <= 1
 0 <= wafer_to_full_pair_2_4 <= 1
 0 <= wafer_to_full_pair_2_5 <= 1
 0 <= wafer_to_full_pair_2_6 <= 1
 0 <= wafer_to_full_pair_2_7 <= 1
 0 <= wafer_to_full_pair_2_8 <= 1
 0 <= wafer_to_full_pair_2_9 <= 1
 0 <= wafer_to_full_pair_2_10 <= 1
 0 <= wafer_to_full_pair_2_11 <= 1
 0 <= wafer_to_full_pair_2_12 <= 1
 0 <= wafer_to_full_pair_3_1 <= 1
 0 <= wafer_to_full_pair_3_2 <= 1
 0 <= wafer_to_full_pair_3_3 <= 1
 0 <= wafer_to_full_pair_3_4 <= 1
 0 <= wafer_to_full_pair_3_5 <= 1
 0 <= wafer_to_full_pair_3_6 <= 1
 0 <= wafer_to_full_pair_3_7 <= 1
 0 <= wafer_to_full_pair_3_8 <= 1
 0 <= wafer_to_full_pair_3_9 <= 1
 0 <= wafer_to_full_pair_3_10 <= 1
 0 <= wafer_to_full_pair_3_11 <= 1
 0 <= wafer_to_full_pair_3_12 <= 1
 0 <= wafer_to_full_pair_4_1 <= 1
 0 <= wafer_to_full_pair_4_2 <= 1
 0 <= wafer_to_full_pair_4_3 <= 1
 0 <= wafer_to_full_pair_4_4 <= 1
 0 <= wafer_to_full_pair_4_5 <= 1
 0 <= wafer_to_full_pair_4_6 <= 1
 0 <= wafer_to_full_pair_4_7 <= 1
 0 <= wafer_to_full_pair_4_8 <= 1
 0 <= wafer_to_full_pair_4_9 <= 1
 0 <= wafer_to_full_pair_4_10 <= 1
 0 <= wafer_to_full_pair_4_11 <= 1
 0 <= wafer_to_full_pair_4_12 <= 1
 0 <= wafer_to_full_pair_5_1 <= 1
 0 <= wafer_to_full_pair_5_2 <= 1
 0 <= wafer_to_full_pair_5_3 <= 1
 0 <= wafer_to_full_pair_5_4 <= 1
 0 <= wafer_to_full_pair_5_5 <= 1
 0 <= wafer_to_full_pair_5_6 <= 1
 0 <= wafer_to_full_pair_5_7 <= 1
 0 <= wafer_to_full_pair_5_8 <= 1
 0 <= wafer_to_full_pair_5_9 <= 1
 0 <= wafer_to_full_pair_5_10 <= 1
 0 <= wafer_to_full_pair_5_11 <= 1
 0 <= wafer_to_full_pair_5_12 <= 1
 0 <= wafer_to_full_pair_6_1 <= 1
 0 <= wafer_to_full_pair_6_2 <= 1
 0 <= wafer_to_full_pair_6_3 <= 1
 0 <= wafer_to_full_pair_6_4 <= 1
 0 <= wafer_to_full_pair_6_5 <= 1
 0 <= wafer_to_full_pair_6_6 <= 1
 0 <= wafer_to_full_pair_6_7 <= 1
 0 <= wafer_to_full_pair_6_8 <= 1
 0 <= wafer_to_full_pair_6_9 <= 1
 0 <= wafer_to_full_pair_6_10 <= 1
 0 <= wafer_to_full_pair_6_11 <= 1
 0 <= wafer_to_full_pair_6_12 <= 1
 0 <= wafer_to_full_pair_7_1 <= 1
 0 <= wafer_to_full_pair_7_2 <= 1
 0 <= wafer_to_full_pair_7_3 <= 1
 0 <= wafer_to_full_pair_7_4 <= 1
 0 <= wafer_to_full_pair_7_5 <= 1
 0 <= wafer_to_full_pair_7_6 <= 1
 0 <= wafer_to_full_pair_7_7 <= 1
 0 <= wafer_to_full_pair_7_8 <= 1
 0 <= wafer_to_full_pair_7_9 <= 1
 0 <= wafer_to_full_pair_7_10 <= 1
 0 <= wafer_to_full_pair_7_11 <= 1
 0 <= wafer_to_full_pair_7_12 <= 1
 0 <= wafer_to_full_pair_8_1 <= 1
 0 <= wafer_to_full_pair_8_2 <= 1
 0 <= wafer_to_full_pair_8_3 <= 1
 0 <= wafer_to_full_pair_8_4 <= 1
 0 <= wafer_to_full_pair_8_5 <= 1
 0 <= wafer_to_full_pair_8_6 <= 1
 0 <= wafer_to_full_pair_8_7 <= 1
 0 <= wafer_to_full_pair_8_8 <= 1
 0 <= wafer_to_full_pair_8_9 <= 1
 0 <= wafer_to_full_pair_8_10 <= 1
 0 <= wafer_to_full_pair_8_11 <= 1
 0 <= wafer_to_full_pair_8_12 <= 1
 0 <= wafer_to_full_pair_9_1 <= 1
 0 <= wafer_to_full_pair_9_2 <= 1
 0 <= wafer_to_full_pair_9_3 <= 1
 0 <= wafer_to_full_pair_9_4 <= 1
 0 <= wafer_to_full_pair_9_5 <= 1
 0 <= wafer_to_full_pair_9_6 <= 1
 0 <= wafer_to_full_pair_9_7 <= 1
 0 <= wafer_to_full_pair_9_8 <= 1
 0 <= wafer_to_full_pair_9_9 <= 1
 0 <= wafer_to_full_pair_9_10 <= 1
 0 <= wafer_to_full_pair_9_11 <= 1
 0 <= wafer_to_full_pair_9_12 <= 1
 0 <= wafer_to_full_pair_10_1 <= 1
 0 <= wafer_to_full_pair_10_2 <= 1
 0 <= wafer_to_full_pair_10_3 <= 1
 0 <= wafer_to_full_pair_10_4 <= 1
 0 <= wafer_to_full_pair_10_5 <= 1
 0 <= wafer_to_full_pair_10_6 <= 1
 0 <= wafer_to_full_pair_10_7 <= 1
 0 <= wafer_to_full_pair_10_8 <= 1
 0 <= wafer_to_full_pair_10_9 <= 1
 0 <= wafer_to_full_pair_10_10 <= 1
 0 <= wafer_to_full_pair_10_11 <= 1
 0 <= wafer_to_full_pair_10_12 <= 1
 0 <= wafer_to_full_pair_11_1 <= 1
 0 <= wafer_to_full_pair_11_2 <= 1
 0 <= wafer_to_full_pair_11_3 <= 1
 0 <= wafer_to_full_pair_11_4 <= 1
 0 <= wafer_to_full_pair_11_5 <= 1
 0 <= wafer_to_full_pair_11_6 <= 1
 0 <= wafer_to_full_pair_11_7 <= 1
 0 <= wafer_to_full_pair_11_8 <= 1
 0 <= wafer_to_full_pair_11_9 <= 1
 0 <= wafer_to_full_pair_11_10 <= 1
 0 <= wafer_to_full_pair_11_11 <= 1
 0 <= wafer_to_full_pair_11_12 <= 1
 0 <= wafer_to_full_pair_12_1 <= 1
 0 <= wafer_to_full_pair_12_2 <= 1
 0 <= wafer_to_full_pair_12_3 <= 1
 0 <= wafer_to_full_pair_12_4 <= 1
 0 <= wafer_to_full_pair_12_5 <= 1
 0 <= wafer_to_full_pair_12_6 <= 1
 0 <= wafer_to_full_pair_12_7 <= 1
 0 <= wafer_to_full_pair_12_8 <= 1
 0 <= wafer_to_full_pair_12_9 <= 1
 0 <= wafer_to_full_pair_12_10 <= 1
 0 <= wafer_to_full_pair_12_11 <= 1
 0 <= wafer_to_full_pair_12_12 <= 1
 0 <= wafer_to_full_pair_13_1 <= 1
 0 <= wafer_to_full_pair_13_2 <= 1
 0 <= wafer_to_full_pair_13_3 <= 1
 0 <= wafer_to_full_pair_13_4 <= 1
 0 <= wafer_to_full_pair_13_5 <= 1
 0 <= wafer_to_full_pair_13_6 <= 1
 0 <= wafer_to_full_pair_13_7 <= 1
 0 <= wafer_to_full_pair_13_8 <= 1
 0 <= wafer_to_full_pair_13_9 <= 1
 0 <= wafer_to_full_pair_13_10 <= 1
 0 <= wafer_to_full_pair_13_11 <= 1
 0 <= wafer_to_full_pair_13_12 <= 1
 0 <= wafer_to_full_pair_14_1 <= 1
 0 <= wafer_to_full_pair_14_2 <= 1
 0 <= wafer_to_full_pair_14_3 <= 1
 0 <= wafer_to_full_pair_14_4 <= 1
 0 <= wafer_to_full_pair_14_5 <= 1
 0 <= wafer_to_full_pair_14_6 <= 1
 0 <= wafer_to_full_pair_14_7 <= 1
 0 <= wafer_to_full_pair_14_8 <= 1
 0 <= wafer_to_full_pair_14_9 <= 1
 0 <= wafer_to_full_pair_14_10 <= 1
 0 <= wafer_to_full_pair_14_11 <= 1
 0 <= wafer_to_full_pair_14_12 <= 1
 0 <= wafer_to_full_pair_15_1 <= 1
 0 <= wafer_to_full_pair_15_2 <= 1
 0 <= wafer_to_full_pair_15_3 <= 1
 0 <= wafer_to_full_pair_15_4 <= 1
 0 <= wafer_to_full_pair_15_5 <= 1
 0 <= wafer_to_full_pair_15_6 <= 1
 0 <= wafer_to_full_pair_15_7 <= 1
 0 <= wafer_to_full_pair_15_8 <= 1
 0 <= wafer_to_full_pair_15_9 <= 1
 0 <= wafer_to_full_pair_15_10 <= 1
 0 <= wafer_to_full_pair_15_11 <= 1
 0 <= wafer_to_full_pair_15_12 <= 1
 0 <= wafer_to_full_pair_16_1 <= 1
 0 <= wafer_to_full_pair_16_2 <= 1
 0 <= wafer_to_full_pair_16_3 <= 1
 0 <= wafer_to_full_pair_16_4 <= 1
 0 <= wafer_to_full_pair_16_5 <= 1
 0 <= wafer_to_full_pair_16_6 <= 1
 0 <= wafer_to_full_pair_16_7 <= 1
 0 <= wafer_to_full_pair_16_8 <= 1
 0 <= wafer_to_full_pair_16_9 <= 1
 0 <= wafer_to_full_pair_16_10 <= 1
 0 <= wafer_to_full_pair_16_11 <= 1
 0 <= wafer_to_full_pair_16_12 <= 1
 0 <= wafer_to_full_pair_17_1 <= 1
 0 <= wafer_to_full_pair_17_2 <= 1
 0 <= wafer_to_full_pair_17_3 <= 1
 0 <= wafer_to_full_pair_17_4 <= 1
 0 <= wafer_to_full_pair_17_5 <= 1
 0 <= wafer_to_full_pair_17_6 <= 1
 0 <= wafer_to_full_pair_17_7 <= 1
 0 <= wafer_to_full_pair_17_8 <= 1
 0 <= wafer_to_full_pair_17_9 <= 1
 0 <= wafer_to_full_pair_17_10 <= 1
 0 <= wafer_to_full_pair_17_11 <= 1
 0 <= wafer_to_full_pair_17_12 <= 1
 0 <= wafer_to_full_pair_18_1 <= 1
 0 <= wafer_to_full_pair_18_2 <= 1
 0 <= wafer_to_full_pair_18_3 <= 1
 0 <= wafer_to_full_pair_18_4 <= 1
 0 <= wafer_to_full_pair_18_5 <= 1
 0 <= wafer_to_full_pair_18_6 <= 1
 0 <= wafer_to_full_pair_18_7 <= 1
 0 <= wafer_to_full_pair_18_8 <= 1
 0 <= wafer_to_full_pair_18_9 <= 1
 0 <= wafer_to_full_pair_18_10 <= 1
 0 <= wafer_to_full_pair_18_11 <= 1
 0 <= wafer_to_full_pair_18_12 <= 1
 0 <= wafer_to_full_pair_19_1 <= 1
 0 <= wafer_to_full_pair_19_2 <= 1
 0 <= wafer_to_full_pair_19_3 <= 1
 0 <= wafer_to_full_pair_19_4 <= 1
 0 <= wafer_to_full_pair_19_5 <= 1
 0 <= wafer_to_full_pair_19_6 <= 1
 0 <= wafer_to_full_pair_19_7 <= 1
 0 <= wafer_to_full_pair_19_8 <= 1
 0 <= wafer_to_full_pair_19_9 <= 1
 0 <= wafer_to_full_pair_19_10 <= 1
 0 <= wafer_to_full_pair_19_11 <= 1
 0 <= wafer_to_full_pair_19_12 <= 1
 0 <= wafer_to_full_pair_20_1 <= 1
 0 <= wafer_to_full_pair_20_2 <= 1
 0 <= wafer_to_full_pair_20_3 <= 1
 0 <= wafer_to_full_pair_20_4 <= 1
 0 <= wafer_to_full_pair_20_5 <= 1
 0 <= wafer_to_full_pair_20_6 <= 1
 0 <= wafer_to_full_pair_20_7 <= 1
 0 <= wafer_to_full_pair_20_8 <= 1
 0 <= wafer_to_full_pair_20_9 <= 1
 0 <= wafer_to_full_pair_20_10 <= 1
 0 <= wafer_to_full_pair_20_11 <= 1
 0 <= wafer_to_full_pair_20_12 <= 1
 0 <= wafer_to_full_pair_21_1 <= 1
 0 <= wafer_to_full_pair_21_2 <= 1
 0 <= wafer_to_full_pair_21_3 <= 1
 0 <= wafer_to_full_pair_21_4 <= 1
 0 <= wafer_to_full_pair_21_5 <= 1
 0 <= wafer_to_full_pair_21_6 <= 1
 0 <= wafer_to_full_pair_21_7 <= 1
 0 <= wafer_to_full_pair_21_8 <= 1
 0 <= wafer_to_full_pair_21_9 <= 1
 0 <= wafer_to_full_pair_21_10 <= 1
 0 <= wafer_to_full_pair_21_11 <= 1
 0 <= wafer_to_full_pair_21_12 <= 1
 0 <= wafer_to_full_pair_22_1 <= 1
 0 <= wafer_to_full_pair_22_2 <= 1
 0 <= wafer_to_full_pair_22_3 <= 1
 0 <= wafer_to_full_pair_22_4 <= 1
 0 <= wafer_to_full_pair_22_5 <= 1
 0 <= wafer_to_full_pair_22_6 <= 1
 0 <= wafer_to_full_pair_22_7 <= 1
 0 <= wafer_to_full_pair_22_8 <= 1
 0 <= wafer_to_full_pair_22_9 <= 1
 0 <= wafer_to_full_pair_22_10 <= 1
 0 <= wafer_to_full_pair_22_11 <= 1
 0 <= wafer_to_full_pair_22_12 <= 1
 0 <= wafer_to_full_pair_23_1 <= 1
 0 <= wafer_to_full_pair_23_2 <= 1
 0 <= wafer_to_full_pair_23_3 <= 1
 0 <= wafer_to_full_pair_23_4 <= 1
 0 <= wafer_to_full_pair_23_5 <= 1
 0 <= wafer_to_full_pair_23_6 <= 1
 0 <= wafer_to_full_pair_23_7 <= 1
 0 <= wafer_to_full_pair_23_8 <= 1
 0 <= wafer_to_full_pair_23_9 <= 1
 0 <= wafer_to_full_pair_23_10 <= 1
 0 <= wafer_to_full_pair_23_11 <= 1
 0 <= wafer_to_full_pair_23_12 <= 1
 0 <= wafer_to_full_pair_24_1 <= 1
 0 <= wafer_to_full_pair_24_2 <= 1
 0 <= wafer_to_full_pair_24_3 <= 1
 0 <= wafer_to_full_pair_24_4 <= 1
 0 <= wafer_to_full_pair_24_5 <= 1
 0 <= wafer_to_full_pair_24_6 <= 1
 0 <= wafer_to_full_pair_24_7 <= 1
 0 <= wafer_to_full_pair_24_8 <= 1
 0 <= wafer_to_full_pair_24_9 <= 1
 0 <= wafer_to_full_pair_24_10 <= 1
 0 <= wafer_to_full_pair_24_11 <= 1
 0 <= wafer_to_full_pair_24_12 <= 1
 0 <= wafer_to_mix_pair_25_1 <= 1
 0 <= wafer_to_mix_pair_25_2 <= 1
 0 <= wafer_to_mix_pair_25_3 <= 1
 0 <= wafer_to_mix_pair_25_4 <= 1
 0 <= wafer_to_mix_pair_25_5 <= 1
 0 <= wafer_to_mix_pair_25_6 <= 1
 0 <= wafer_to_mix_pair_25_7 <= 1
 0 <= wafer_to_mix_pair_25_8 <= 1
 0 <= wafer_to_mix_pair_26_1 <= 1
 0 <= wafer_to_mix_pair_26_2 <= 1
 0 <= wafer_to_mix_pair_26_3 <= 1
 0 <= wafer_to_mix_pair_26_4 <= 1
 0 <= wafer_to_mix_pair_26_5 <= 1
 0 <= wafer_to_mix_pair_26_6 <= 1
 0 <= wafer_to_mix_pair_26_7 <= 1
 0 <= wafer_to_mix_pair_26_8 <= 1
 0 <= wafer_to_mix_pair_27_1 <= 1
 0 <= wafer_to_mix_pair_27_2 <= 1
 0 <= wafer_to_mix_pair_27_3 <= 1
 0 <= wafer_to_mix_pair_27_4 <= 1
 0 <= wafer_to_mix_pair_27_5 <= 1
 0 <= wafer_to_mix_pair_27_6 <= 1
 0 <= wafer_to_mix_pair_27_7 <= 1
 0 <= wafer_to_mix_pair_27_8 <= 1
 0 <= wafer_to_mix_pair_28_1 <= 1
 0 <= wafer_to_mix_pair_28_2 <= 1
 0 <= wafer_to_mix_pair_28_3 <= 1
 0 <= wafer_to_mix_pair_28_4 <= 1
 0 <= wafer_to_mix_pair_28_5 <= 1
 0 <= wafer_to_mix_pair_28_6 <= 1
 0 <= wafer_to_mix_pair_28_7 <= 1
 0 <= wafer_to_mix_pair_28_8 <= 1
 0 <= wafer_to_mix_pair_29_1 <= 1
 0 <= wafer_to_mix_pair_29_2 <= 1
 0 <= wafer_to_mix_pair_29_3 <= 1
 0 <= wafer_to_mix_pair_29_4 <= 1
 0 <= wafer_to_mix_pair_29_5 <= 1
 0 <= wafer_to_mix_pair_29_6 <= 1
 0 <= wafer_to_mix_pair_29_7 <= 1
 0 <= wafer_to_mix_pair_29_8 <= 1
 0 <= wafer_to_mix_pair_30_1 <= 1
 0 <= wafer_to_mix_pair_30_2 <= 1
 0 <= wafer_to_mix_pair_30_3 <= 1
 0 <= wafer_to_mix_pair_30_4 <= 1
 0 <= wafer_to_mix_pair_30_5 <= 1
 0 <= wafer_to_mix_pair_30_6 <= 1
 0 <= wafer_to_mix_pair_30_7 <= 1
 0 <= wafer_to_mix_pair_30_8 <= 1
 0 <= wafer_to_mix_pair_31_1 <= 1
 0 <= wafer_to_mix_pair_31_2 <= 1
 0 <= wafer_to_mix_pair_31_3 <= 1
 0 <= wafer_to_mix_pair_31_4 <= 1
 0 <= wafer_to_mix_pair_31_5 <= 1
 0 <= wafer_to_mix_pair_31_6 <= 1
 0 <= wafer_to_mix_pair_31_7 <= 1
 0 <= wafer_to_mix_pair_31_8 <= 1
 0 <= wafer_to_mix_pair_32_1 <= 1
 0 <= wafer_to_mix_pair_32_2 <= 1
 0 <= wafer_to_mix_pair_32_3 <= 1
 0 <= wafer_to_mix_pair_32_4 <= 1
 0 <= wafer_to_mix_pair_32_5 <= 1
 0 <= wafer_to_mix_pair_32_6 <= 1
 0 <= wafer_to_mix_pair_32_7 <= 1
 0 <= wafer_to_mix_pair_32_8 <= 1
 0 <= wafer_to_mix_pair_33_1 <= 1
 0 <= wafer_to_mix_pair_33_2 <= 1
 0 <= wafer_to_mix_pair_33_3 <= 1
 0 <= wafer_to_mix_pair_33_4 <= 1
 0 <= wafer_to_mix_pair_33_5 <= 1
 0 <= wafer_to_mix_pair_33_6 <= 1
 0 <= wafer_to_mix_pair_33_7 <= 1
 0 <= wafer_to_mix_pair_33_8 <= 1
 0 <= wafer_to_mix_pair_34_1 <= 1
 0 <= wafer_to_mix_pair_34_2 <= 1
 0 <= wafer_to_mix_pair_34_3 <= 1
 0 <= wafer_to_mix_pair_34_4 <= 1
 0 <= wafer_to_mix_pair_34_5 <= 1
 0 <= wafer_to_mix_pair_34_6 <= 1
 0 <= wafer_to_mix_pair_34_7 <= 1
 0 <= wafer_to_mix_pair_34_8 <= 1
 0 <= wafer_to_mix_pair_35_1 <= 1
 0 <= wafer_to_mix_pair_35_2 <= 1
 0 <= wafer_to_mix_pair_35_3 <= 1
 0 <= wafer_to_mix_pair_35_4 <= 1
 0 <= wafer_to_mix_pair_35_5 <= 1
 0 <= wafer_to_mix_pair_35_6 <= 1
 0 <= wafer_to_mix_pair_35_7 <= 1
 0 <= wafer_to_mix_pair_35_8 <= 1
 0 <= wafer_to_mix_pair_36_1 <= 1
 0 <= wafer_to_mix_pair_36_2 <= 1
 0 <= wafer_to_mix_pair_36_3 <= 1
 0 <= wafer_to_mix_pair_36_4 <= 1
 0 <= wafer_to_mix_pair_36_5 <= 1
 0 <= wafer_to_mix_pair_36_6 <= 1
 0 <= wafer_to_mix_pair_36_7 <= 1
 0 <= wafer_to_mix_pair_36_8 <= 1
 0 <= wafer_to_mix_pair_37_1 <= 1
 0 <= wafer_to_mix_pair_37_2 <= 1
 0 <= wafer_to_mix_pair_37_3 <= 1
 0 <= wafer_to_mix_pair_37_4 <= 1
 0 <= wafer_to_mix_pair_37_5 <= 1
 0 <= wafer_to_mix_pair_37_6 <= 1
 0 <= wafer_to_mix_pair_37_7 <= 1
 0 <= wafer_to_mix_pair_37_8 <= 1
 0 <= wafer_to_mix_pair_38_1 <= 1
 0 <= wafer_to_mix_pair_38_2 <= 1
 0 <= wafer_to_mix_pair_38_3 <= 1
 0 <= wafer_to_mix_pair_38_4 <= 1
 0 <= wafer_to_mix_pair_38_5 <= 1
 0 <= wafer_to_mix_pair_38_6 <= 1
 0 <= wafer_to_mix_pair_38_7 <= 1
 0 <= wafer_to_mix_pair_38_8 <= 1
 0 <= wafer_to_mix_pair_39_1 <= 1
 0 <= wafer_to_mix_pair_39_2 <= 1
 0 <= wafer_to_mix_pair_39_3 <= 1
 0 <= wafer_to_mix_pair_39_4 <= 1
 0 <= wafer_to_mix_pair_39_5 <= 1
 0 <= wafer_to_mix_pair_39_6 <= 1
 0 <= wafer_to_mix_pair_39_7 <= 1
 0 <= wafer_to_mix_pair_39_8 <= 1
 0 <= assign_full_1_1_1 <= 1
 0 <= assign_full_1_1_2 <= 1
 0 <= assign_full_1_1_3 <= 1
 0 <= assign_full_1_1_4 <= 1
 0 <= assign_full_1_1_5 <= 1
 0 <= assign_full_1_1_6 <= 1
 0 <= assign_full_1_1_7 <= 1
 0 <= assign_full_1_1_8 <= 1
 0 <= assign_full_1_1_9 <= 1
 0 <= assign_full_1_1_10 <= 1
 0 <= assign_full_1_2_1 <= 1
 0 <= assign_full_1_2_2 <= 1
 0 <= assign_full_1_2_3 <= 1
 0 <= assign_full_1_2_4 <= 1
 0 <= assign_full_1_2_5 <= 1
 0 <= assign_full_1_2_6 <= 1
 0 <= assign_full_1_2_7 <= 1
 0 <= assign_full_1_2_8 <= 1
 0 <= assign_full_1_2_9 <= 1
 0 <= assign_full_1_2_10 <= 1
 0 <= assign_full_2_1_1 <= 1
 0 <= assign_full_2_1_2 <= 1
 0 <= assign_full_2_1_3 <= 1
 0 <= assign_full_2_1_4 <= 1
 0 <= assign_full_2_1_5 <= 1
 0 <= assign_full_2_1_6 <= 1
 0 <= assign_full_2_1_7 <= 1
 0 <= assign_full_2_1_8 <= 1
 0 <= assign_full_2_1_9 <= 1
 0 <= assign_full_2_1_10 <= 1
 0 <= assign_full_2_2_1 <= 1
 0 <= assign_full_2_2_2 <= 1
 0 <= assign_full_2_2_3 <= 1
 0 <= assign_full_2_2_4 <= 1
 0 <= assign_full_2_2_5 <= 1
 0 <= assign_full_2_2_6 <= 1
 0 <= assign_full_2_2_7 <= 1
 0 <= assign_full_2_2_8 <= 1
 0 <= assign_full_2_2_9 <= 1
 0 <= assign_full_2_2_10 <= 1
 0 <= assign_full_3_1_1 <= 1
 0 <= assign_full_3_1_2 <= 1
 0 <= assign_full_3_1_3 <= 1
 0 <= assign_full_3_1_4 <= 1
 0 <= assign_full_3_1_5 <= 1
 0 <= assign_full_3_1_6 <= 1
 0 <= assign_full_3_1_7 <= 1
 0 <= assign_full_3_1_8 <= 1
 0 <= assign_full_3_1_9 <= 1
 0 <= assign_full_3_1_10 <= 1
 0 <= assign_full_3_2_1 <= 1
 0 <= assign_full_3_2_2 <= 1
 0 <= assign_full_3_2_3 <= 1
 0 <= assign_full_3_2_4 <= 1
 0 <= assign_full_3_2_5 <= 1
 0 <= assign_full_3_2_6 <= 1
 0 <= assign_full_3_2_7 <= 1
 0 <= assign_full_3_2_8 <= 1
 0 <= assign_full_3_2_9 <= 1
 0 <= assign_full_3_2_10 <= 1
 0 <= assign_full_4_1_1 <= 1
 0 <= assign_full_4_1_2 <= 1
 0 <= assign_full_4_1_3 <= 1
 0 <= assign_full_4_1_4 <= 1
 0 <= assign_full_4_1_5 <= 1
 0 <= assign_full_4_1_6 <= 1
 0 <= assign_full_4_1_7 <= 1
 0 <= assign_full_4_1_8 <= 1
 0 <= assign_full_4_1_9 <= 1
 0 <= assign_full_4_1_10 <= 1
 0 <= assign_full_4_2_1 <= 1
 0 <= assign_full_4_2_2 <= 1
 0 <= assign_full_4_2_3 <= 1
 0 <= assign_full_4_2_4 <= 1
 0 <= assign_full_4_2_5 <= 1
 0 <= assign_full_4_2_6 <= 1
 0 <= assign_full_4_2_7 <= 1
 0 <= assign_full_4_2_8 <= 1
 0 <= assign_full_4_2_9 <= 1
 0 <= assign_full_4_2_10 <= 1
 0 <= assign_full_5_1_1 <= 1
 0 <= assign_full_5_1_2 <= 1
 0 <= assign_full_5_1_3 <= 1
 0 <= assign_full_5_1_4 <= 1
 0 <= assign_full_5_1_5 <= 1
 0 <= assign_full_5_1_6 <= 1
 0 <= assign_full_5_1_7 <= 1
 0 <= assign_full_5_1_8 <= 1
 0 <= assign_full_5_1_9 <= 1
 0 <= assign_full_5_1_10 <= 1
 0 <= assign_full_5_2_1 <= 1
 0 <= assign_full_5_2_2 <= 1
 0 <= assign_full_5_2_3 <= 1
 0 <= assign_full_5_2_4 <= 1
 0 <= assign_full_5_2_5 <= 1
 0 <= assign_full_5_2_6 <= 1
 0 <= assign_full_5_2_7 <= 1
 0 <= assign_full_5_2_8 <= 1
 0 <= assign_full_5_2_9 <= 1
 0 <= assign_full_5_2_10 <= 1
 0 <= assign_full_6_1_1 <= 1
 0 <= assign_full_6_1_2 <= 1
 0 <= assign_full_6_1_3 <= 1
 0 <= assign_full_6_1_4 <= 1
 0 <= assign_full_6_1_5 <= 1
 0 <= assign_full_6_1_6 <= 1
 0 <= assign_full_6_1_7 <= 1
 0 <= assign_full_6_1_8 <= 1
 0 <= assign_full_6_1_9 <= 1
 0 <= assign_full_6_1_10 <= 1
 0 <= assign_full_6_2_1 <= 1
 0 <= assign_full_6_2_2 <= 1
 0 <= assign_full_6_2_3 <= 1
 0 <= assign_full_6_2_4 <= 1
 0 <= assign_full_6_2_5 <= 1
 0 <= assign_full_6_2_6 <= 1
 0 <= assign_full_6_2_7 <= 1
 0 <= assign_full_6_2_8 <= 1
 0 <= assign_full_6_2_9 <= 1
 0 <= assign_full_6_2_10 <= 1
 0 <= assign_full_7_1_1 <= 1
 0 <= assign_full_7_1_2 <= 1
 0 <= assign_full_7_1_3 <= 1
 0 <= assign_full_7_1_4 <= 1
 0 <= assign_full_7_1_5 <= 1
 0 <= assign_full_7_1_6 <= 1
 0 <= assign_full_7_1_7 <= 1
 0 <= assign_full_7_1_8 <= 1
 0 <= assign_full_7_1_9 <= 1
 0 <= assign_full_7_1_10 <= 1
 0 <= assign_full_7_2_1 <= 1
 0 <= assign_full_7_2_2 <= 1
 0 <= assign_full_7_2_3 <= 1
 0 <= assign_full_7_2_4 <= 1
 0 <= assign_full_7_2_5 <= 1
 0 <= assign_full_7_2_6 <= 1
 0 <= assign_full_7_2_7 <= 1
 0 <= assign_full_7_2_8 <= 1
 0 <= assign_full_7_2_9 <= 1
 0 <= assign_full_7_2_10 <= 1
 0 <= assign_full_8_1_1 <= 1
 0 <= assign_full_8_1_2 <= 1
 0 <= assign_full_8_1_3 <= 1
 0 <= assign_full_8_1_4 <= 1
 0 <= assign_full_8_1_5 <= 1
 0 <= assign_full_8_1_6 <= 1
 0 <= assign_full_8_1_7 <= 1
 0 <= assign_full_8_1_8 <= 1
 0 <= assign_full_8_1_9 <= 1
 0 <= assign_full_8_1_10 <= 1
 0 <= assign_full_8_2_1 <= 1
 0 <= assign_full_8_2_2 <= 1
 0 <= assign_full_8_2_3 <= 1
 0 <= assign_full_8_2_4 <= 1
 0 <= assign_full_8_2_5 <= 1
 0 <= assign_full_8_2_6 <= 1
 0 <= assign_full_8_2_7 <= 1
 0 <= assign_full_8_2_8 <= 1
 0 <= assign_full_8_2_9 <= 1
 0 <= assign_full_8_2_10 <= 1
 0 <= assign_full_9_1_1 <= 1
 0 <= assign_full_9_1_2 <= 1
 0 <= assign_full_9_1_3 <= 1
 0 <= assign_full_9_1_4 <= 1
 0 <= assign_full_9_1_5 <= 1
 0 <= assign_full_9_1_6 <= 1
 0 <= assign_full_9_1_7 <= 1
 0 <= assign_full_9_1_8 <= 1
 0 <= assign_full_9_1_9 <= 1
 0 <= assign_full_9_1_10 <= 1
 0 <= assign_full_9_2_1 <= 1
 0 <= assign_full_9_2_2 <= 1
 0 <= assign_full_9_2_3 <= 1
 0 <= assign_full_9_2_4 <= 1
 0 <= assign_full_9_2_5 <= 1
 0 <= assign_full_9_2_6 <= 1
 0 <= assign_full_9_2_7 <= 1
 0 <= assign_full_9_2_8 <= 1
 0 <= assign_full_9_2_9 <= 1
 0 <= assign_full_9_2_10 <= 1
 0 <= assign_full_10_1_1 <= 1
 0 <= assign_full_10_1_2 <= 1
 0 <= assign_full_10_1_3 <= 1
 0 <= assign_full_10_1_4 <= 1
 0 <= assign_full_10_1_5 <= 1
 0 <= assign_full_10_1_6 <= 1
 0 <= assign_full_10_1_7 <= 1
 0 <= assign_full_10_1_8 <= 1
 0 <= assign_full_10_1_9 <= 1
 0 <= assign_full_10_1_10 <= 1
 0 <= assign_full_10_2_1 <= 1
 0 <= assign_full_10_2_2 <= 1
 0 <= assign_full_10_2_3 <= 1
 0 <= assign_full_10_2_4 <= 1
 0 <= assign_full_10_2_5 <= 1
 0 <= assign_full_10_2_6 <= 1
 0 <= assign_full_10_2_7 <= 1
 0 <= assign_full_10_2_8 <= 1
 0 <= assign_full_10_2_9 <= 1
 0 <= assign_full_10_2_10 <= 1
 0 <= assign_full_11_1_1 <= 1
 0 <= assign_full_11_1_2 <= 1
 0 <= assign_full_11_1_3 <= 1
 0 <= assign_full_11_1_4 <= 1
 0 <= assign_full_11_1_5 <= 1
 0 <= assign_full_11_1_6 <= 1
 0 <= assign_full_11_1_7 <= 1
 0 <= assign_full_11_1_8 <= 1
 0 <= assign_full_11_1_9 <= 1
 0 <= assign_full_11_1_10 <= 1
 0 <= assign_full_11_2_1 <= 1
 0 <= assign_full_11_2_2 <= 1
 0 <= assign_full_11_2_3 <= 1
 0 <= assign_full_11_2_4 <= 1
 0 <= assign_full_11_2_5 <= 1
 0 <= assign_full_11_2_6 <= 1
 0 <= assign_full_11_2_7 <= 1
 0 <= assign_full_11_2_8 <= 1
 0 <= assign_full_11_2_9 <= 1
 0 <= assign_full_11_2_10 <= 1
 0 <= assign_full_12_1_1 <= 1
 0 <= assign_full_12_1_2 <= 1
 0 <= assign_full_12_1_3 <= 1
 0 <= assign_full_12_1_4 <= 1
 0 <= assign_full_12_1_5 <= 1
 0 <= assign_full_12_1_6 <= 1
 0 <= assign_full_12_1_7 <= 1
 0 <= assign_full_12_1_8 <= 1
 0 <= assign_full_12_1_9 <= 1
 0 <= assign_full_12_1_10 <= 1
 0 <= assign_full_12_2_1 <= 1
 0 <= assign_full_12_2_2 <= 1
 0 <= assign_full_12_2_3 <= 1
 0 <= assign_full_12_2_4 <= 1
 0 <= assign_full_12_2_5 <= 1
 0 <= assign_full_12_2_6 <= 1
 0 <= assign_full_12_2_7 <= 1
 0 <= assign_full_12_2_8 <= 1
 0 <= assign_full_12_2_9 <= 1
 0 <= assign_full_12_2_10 <= 1
 0 <= full_slot_used_1_1 <= 1
 0 <= full_slot_used_1_2 <= 1
 0 <= full_slot_used_1_3 <= 1
 0 <= full_slot_used_1_4 <= 1
 0 <= full_slot_used_1_5 <= 1
 0 <= full_slot_used_1_6 <= 1
 0 <= full_slot_used_1_7 <= 1
 0 <= full_slot_used_1_8 <= 1
 0 <= full_slot_used_1_9 <= 1
 0 <= full_slot_used_1_10 <= 1
 0 <= full_slot_used_2_1 <= 1
 0 <= full_slot_used_2_2 <= 1
 0 <= full_slot_used_2_3 <= 1
 0 <= full_slot_used_2_4 <= 1
 0 <= full_slot_used_2_5 <= 1
 0 <= full_slot_used_2_6 <= 1
 0 <= full_slot_used_2_7 <= 1
 0 <= full_slot_used_2_8 <= 1
 0 <= full_slot_used_2_9 <= 1
 0 <= full_slot_used_2_10 <= 1
 0 <= full_pec_pairs_1_1 <= 1
 0 <= full_pec_pairs_1_2 <= 1
 0 <= full_pec_pairs_1_3 <= 1
 0 <= full_pec_pairs_1_4 <= 1
 0 <= full_pec_pairs_1_5 <= 1
 0 <= full_pec_pairs_1_6 <= 1
 0 <= full_pec_pairs_1_7 <= 1
 0 <= full_pec_pairs_1_8 <= 1
 0 <= full_pec_pairs_1_9 <= 1
 0 <= full_pec_pairs_1_10 <= 1
 0 <= full_pec_pairs_2_1 <= 1
 0 <= full_pec_pairs_2_2 <= 1
 0 <= full_pec_pairs_2_3 <= 1
 0 <= full_pec_pairs_2_4 <= 1
 0 <= full_pec_pairs_2_5 <= 1
 0 <= full_pec_pairs_2_6 <= 1
 0 <= full_pec_pairs_2_7 <= 1
 0 <= full_pec_pairs_2_8 <= 1
 0 <= full_pec_pairs_2_9 <= 1
 0 <= full_pec_pairs_2_10 <= 1
 0 <= full_after_mix_1_1 <= 1
 0 <= full_after_mix_1_2 <= 1
 0 <= full_after_mix_1_3 <= 1
 0 <= full_after_mix_1_4 <= 1
 0 <= full_after_mix_1_5 <= 1
 0 <= full_after_mix_1_6 <= 1
 0 <= full_after_mix_1_7 <= 1
 0 <= full_after_mix_1_8 <= 1
 0 <= full_after_mix_1_9 <= 1
 0 <= full_after_mix_1_10 <= 1
 0 <= full_after_mix_2_1 <= 1
 0 <= full_after_mix_2_2 <= 1
 0 <= full_after_mix_2_3 <= 1
 0 <= full_after_mix_2_4 <= 1
 0 <= full_after_mix_2_5 <= 1
 0 <= full_after_mix_2_6 <= 1
 0 <= full_after_mix_2_7 <= 1
 0 <= full_after_mix_2_8 <= 1
 0 <= full_after_mix_2_9 <= 1
 0 <= full_after_mix_2_10 <= 1
 0 <= assign_mix_1_1_1 <= 1
 0 <= assign_mix_1_1_2 <= 1
 0 <= assign_mix_1_1_3 <= 1
 0 <= assign_mix_1_1_4 <= 1
 0 <= assign_mix_1_1_5 <= 1
 0 <= assign_mix_1_1_6 <= 1
 0 <= assign_mix_1_1_7 <= 1
 0 <= assign_mix_1_1_8 <= 1
 0 <= assign_mix_1_2_1 <= 1
 0 <= assign_mix_1_2_2 <= 1
 0 <= assign_mix_1_2_3 <= 1
 0 <= assign_mix_1_2_4 <= 1
 0 <= assign_mix_1_2_5 <= 1
 0 <= assign_mix_1_2_6 <= 1
 0 <= assign_mix_1_2_7 <= 1
 0 <= assign_mix_1_2_8 <= 1
 0 <= assign_mix_2_1_1 <= 1
 0 <= assign_mix_2_1_2 <= 1
 0 <= assign_mix_2_1_3 <= 1
 0 <= assign_mix_2_1_4 <= 1
 0 <= assign_mix_2_1_5 <= 1
 0 <= assign_mix_2_1_6 <= 1
 0 <= assign_mix_2_1_7 <= 1
 0 <= assign_mix_2_1_8 <= 1
 0 <= assign_mix_2_2_1 <= 1
 0 <= assign_mix_2_2_2 <= 1
 0 <= assign_mix_2_2_3 <= 1
 0 <= assign_mix_2_2_4 <= 1
 0 <= assign_mix_2_2_5 <= 1
 0 <= assign_mix_2_2_6 <= 1
 0 <= assign_mix_2_2_7 <= 1
 0 <= assign_mix_2_2_8 <= 1
 0 <= assign_mix_3_1_1 <= 1
 0 <= assign_mix_3_1_2 <= 1
 0 <= assign_mix_3_1_3 <= 1
 0 <= assign_mix_3_1_4 <= 1
 0 <= assign_mix_3_1_5 <= 1
 0 <= assign_mix_3_1_6 <= 1
 0 <= assign_mix_3_1_7 <= 1
 0 <= assign_mix_3_1_8 <= 1
 0 <= assign_mix_3_2_1 <= 1
 0 <= assign_mix_3_2_2 <= 1
 0 <= assign_mix_3_2_3 <= 1
 0 <= assign_mix_3_2_4 <= 1
 0 <= assign_mix_3_2_5 <= 1
 0 <= assign_mix_3_2_6 <= 1
 0 <= assign_mix_3_2_7 <= 1
 0 <= assign_mix_3_2_8 <= 1
 0 <= assign_mix_4_1_1 <= 1
 0 <= assign_mix_4_1_2 <= 1
 0 <= assign_mix_4_1_3 <= 1
 0 <= assign_mix_4_1_4 <= 1
 0 <= assign_mix_4_1_5 <= 1
 0 <= assign_mix_4_1_6 <= 1
 0 <= assign_mix_4_1_7 <= 1
 0 <= assign_mix_4_1_8 <= 1
 0 <= assign_mix_4_2_1 <= 1
 0 <= assign_mix_4_2_2 <= 1
 0 <= assign_mix_4_2_3 <= 1
 0 <= assign_mix_4_2_4 <= 1
 0 <= assign_mix_4_2_5 <= 1
 0 <= assign_mix_4_2_6 <= 1
 0 <= assign_mix_4_2_7 <= 1
 0 <= assign_mix_4_2_8 <= 1
 0 <= assign_mix_5_1_1 <= 1
 0 <= assign_mix_5_1_2 <= 1
 0 <= assign_mix_5_1_3 <= 1
 0 <= assign_mix_5_1_4 <= 1
 0 <= assign_mix_5_1_5 <= 1
 0 <= assign_mix_5_1_6 <= 1
 0 <= assign_mix_5_1_7 <= 1
 0 <= assign_mix_5_1_8 <= 1
 0 <= assign_mix_5_2_1 <= 1
 0 <= assign_mix_5_2_2 <= 1
 0 <= assign_mix_5_2_3 <= 1
 0 <= assign_mix_5_2_4 <= 1
 0 <= assign_mix_5_2_5 <= 1
 0 <= assign_mix_5_2_6 <= 1
 0 <= assign_mix_5_2_7 <= 1
 0 <= assign_mix_5_2_8 <= 1
 0 <= assign_mix_6_1_1 <= 1
 0 <= assign_mix_6_1_2 <= 1
 0 <= assign_mix_6_1_3 <= 1
 0 <= assign_mix_6_1_4 <= 1
 0 <= assign_mix_6_1_5 <= 1
 0 <= assign_mix_6_1_6 <= 1
 0 <= assign_mix_6_1_7 <= 1
 0 <= assign_mix_6_1_8 <= 1
 0 <= assign_mix_6_2_1 <= 1
 0 <= assign_mix_6_2_2 <= 1
 0 <= assign_mix_6_2_3 <= 1
 0 <= assign_mix_6_2_4 <= 1
 0 <= assign_mix_6_2_5 <= 1
 0 <= assign_mix_6_2_6 <= 1
 0 <= assign_mix_6_2_7 <= 1
 0 <= assign_mix_6_2_8 <= 1
 0 <= assign_mix_7_1_1 <= 1
 0 <= assign_mix_7_1_2 <= 1
 0 <= assign_mix_7_1_3 <= 1
 0 <= assign_mix_7_1_4 <= 1
 0 <= assign_mix_7_1_5 <= 1
 0 <= assign_mix_7_1_6 <= 1
 0 <= assign_mix_7_1_7 <= 1
 0 <= assign_mix_7_1_8 <= 1
 0 <= assign_mix_7_2_1 <= 1
 0 <= assign_mix_7_2_2 <= 1
 0 <= assign_mix_7_2_3 <= 1
 0 <= assign_mix_7_2_4 <= 1
 0 <= assign_mix_7_2_5 <= 1
 0 <= assign_mix_7_2_6 <= 1
 0 <= assign_mix_7_2_7 <= 1
 0 <= assign_mix_7_2_8 <= 1
 0 <= assign_mix_8_1_1 <= 1
 0 <= assign_mix_8_1_2 <= 1
 0 <= assign_mix_8_1_3 <= 1
 0 <= assign_mix_8_1_4 <= 1
 0 <= assign_mix_8_1_5 <= 1
 0 <= assign_mix_8_1_6 <= 1
 0 <= assign_mix_8_1_7 <= 1
 0 <= assign_mix_8_1_8 <= 1
 0 <= assign_mix_8_2_1 <= 1
 0 <= assign_mix_8_2_2 <= 1
 0 <= assign_mix_8_2_3 <= 1
 0 <= assign_mix_8_2_4 <= 1
 0 <= assign_mix_8_2_5 <= 1
 0 <= assign_mix_8_2_6 <= 1
 0 <= assign_mix_8_2_7 <= 1
 0 <= assign_mix_8_2_8 <= 1
 0 <= mix_pos_used_1_1 <= 1
 0 <= mix_pos_used_1_2 <= 1
 0 <= mix_pos_used_1_3 <= 1
 0 <= mix_pos_used_1_4 <= 1
 0 <= mix_pos_used_1_5 <= 1
 0 <= mix_pos_used_1_6 <= 1
 0 <= mix_pos_used_1_7 <= 1
 0 <= mix_pos_used_1_8 <= 1
 0 <= mix_pos_used_2_1 <= 1
 0 <= mix_pos_used_2_2 <= 1
 0 <= mix_pos_used_2_3 <= 1
 0 <= mix_pos_used_2_4 <= 1
 0 <= mix_pos_used_2_5 <= 1
 0 <= mix_pos_used_2_6 <= 1
 0 <= mix_pos_used_2_7 <= 1
 0 <= mix_pos_used_2_8 <= 1
 0 <= mix_cycle_used_1_1 <= 1
 0 <= mix_cycle_used_1_2 <= 1
 0 <= mix_cycle_used_1_3 <= 1
 0 <= mix_cycle_used_1_4 <= 1
 0 <= mix_cycle_used_1_5 <= 1
 0 <= mix_cycle_used_1_6 <= 1
 0 <= mix_cycle_used_1_7 <= 1
 0 <= mix_cycle_used_1_8 <= 1
 0 <= mix_cycle_used_1_9 <= 1
 0 <= mix_cycle_used_2_1 <= 1
 0 <= mix_cycle_used_2_2 <= 1
 0 <= mix_cycle_used_2_3 <= 1
 0 <= mix_cycle_used_2_4 <= 1
 0 <= mix_cycle_used_2_5 <= 1
 0 <= mix_cycle_used_2_6 <= 1
 0 <= mix_cycle_used_2_7 <= 1
 0 <= mix_cycle_used_2_8 <= 1
 0 <= mix_cycle_used_2_9 <= 1
 0 <= mix_active_1 <= 1
 0 <= mix_active_2 <= 1
 0 <= mix_last_cycle_1_1 <= 1
 0 <= mix_last_cycle_1_2 <= 1
 0 <= mix_last_cycle_1_3 <= 1
 0 <= mix_last_cycle_1_4 <= 1
 0 <= mix_last_cycle_1_5 <= 1
 0 <= mix_last_cycle_1_6 <= 1
 0 <= mix_last_cycle_1_7 <= 1
 0 <= mix_last_cycle_1_8 <= 1
 0 <= mix_last_cycle_1_9 <= 1
 0 <= mix_last_cycle_2_1 <= 1
 0 <= mix_last_cycle_2_2 <= 1
 0 <= mix_last_cycle_2_3 <= 1
 0 <= mix_last_cycle_2_4 <= 1
 0 <= mix_last_cycle_2_5 <= 1
 0 <= mix_last_cycle_2_6 <= 1
 0 <= mix_last_cycle_2_7 <= 1
 0 <= mix_last_cycle_2_8 <= 1
 0 <= mix_last_cycle_2_9 <= 1
Binaries
 wafer_to_full_pair_1_1 wafer_to_full_pair_1_2 wafer_to_full_pair_1_3 wafer_to_full_pair_1_4 wafer_to_full_pair_1_5
 wafer_to_full_pair_1_6 wafer_to_full_pair_1_7 wafer_to_full_pair_1_8 wafer_to_full_pair_1_9 wafer_to_full_pair_1_10
 wafer_to_full_pair_1_11 wafer_to_full_pair_1_12 wafer_to_full_pair_2_1 wafer_to_full_pair_2_2 wafer_to_full_pair_2_3
 wafer_to_full_pair_2_4 wafer_to_full_pair_2_5 wafer_to_full_pair_2_6 wafer_to_full_pair_2_7 wafer_to_full_pair_2_8
 wafer_to_full_pair_2_9 wafer_to_full_pair_2_10 wafer_to_full_pair_2_11 wafer_to_full_pair_2_12 wafer_to_full_pair_3_1
 wafer_to_full_pair_3_2 wafer_to_full_pair_3_3 wafer_to_full_pair_3_4 wafer_to_full_pair_3_5 wafer_to_full_pair_3_6
 wafer_to_full_pair_3_7 wafer_to_full_pair_3_8 wafer_to_full_pair_3_9 wafer_to_full_pair_3_10 wafer_to_full_pair_3_11
 wafer_to_full_pair_3_12 wafer_to_full_pair_4_1 wafer_to_full_pair_4_2 wafer_to_full_pair_4_3 wafer_to_full_pair_4_4
 wafer_to_full_pair_4_5 wafer_to_full_pair_4_6 wafer_to_full_pair_4_7 wafer_to_full_pair_4_8 wafer_to_full_pair_4_9
 wafer_to_full_pair_4_10 wafer_to_full_pair_4_11 wafer_to_full_pair_4_12 wafer_to_full_pair_5_1 wafer_to_full_pair_5_2
 wafer_to_full_pair_5_3 wafer_to_full_pair_5_4 wafer_to_full_pair_5_5 wafer_to_full_pair_5_6 wafer_to_full_pair_5_7
 wafer_to_full_pair_5_8 wafer_to_full_pair_5_9 wafer_to_full_pair_5_10 wafer_to_full_pair_5_11 wafer_to_full_pair_5_12
 wafer_to_full_pair_6_1 wafer_to_full_pair_6_2 wafer_to_full_pair_6_3 wafer_to_full_pair_6_4 wafer_to_full_pair_6_5
 wafer_to_full_pair_6_6 wafer_to_full_pair_6_7 wafer_to_full_pair_6_8 wafer_to_full_pair_6_9 wafer_to_full_pair_6_10
 wafer_to_full_pair_6_11 wafer_to_full_pair_6_12 wafer_to_full_pair_7_1 wafer_to_full_pair_7_2 wafer_to_full_pair_7_3
 wafer_to_full_pair_7_4 wafer_to_full_pair_7_5 wafer_to_full_pair_7_6 wafer_to_full_pair_7_7 wafer_to_full_pair_7_8
 wafer_to_full_pair_7_9 wafer_to_full_pair_7_10 wafer_to_full_pair_7_11 wafer_to_full_pair_7_12 wafer_to_full_pair_8_1
 wafer_to_full_pair_8_2 wafer_to_full_pair_8_3 wafer_to_full_pair_8_4 wafer_to_full_pair_8_5 wafer_to_full_pair_8_6
 wafer_to_full_pair_8_7 wafer_to_full_pair_8_8 wafer_to_full_pair_8_9 wafer_to_full_pair_8_10 wafer_to_full_pair_8_11
 wafer_to_full_pair_8_12 wafer_to_full_pair_9_1 wafer_to_full_pair_9_2 wafer_to_full_pair_9_3 wafer_to_full_pair_9_4
 wafer_to_full_pair_9_5 wafer_to_full_pair_9_6 wafer_to_full_pair_9_7 wafer_to_full_pair_9_8 wafer_to_full_pair_9_9
 wafer_to_full_pair_9_10 wafer_to_full_pair_9_11 wafer_to_full_pair_9_12 wafer_to_full_pair_10_1 wafer_to_full_pair_10_2
 wafer_to_full_pair_10_3 wafer_to_full_pair_10_4 wafer_to_full_pair_10_5 wafer_to_full_pair_10_6 wafer_to_full_pair_10_7
 wafer_to_full_pair_10_8 wafer_to_full_pair_10_9 wafer_to_full_pair_10_10 wafer_to_full_pair_10_11 wafer_to_full_pair_10_12
 wafer_to_full_pair_11_1 wafer_to_full_pair_11_2 wafer_to_full_pair_11_3 wafer_to_full_pair_11_4 wafer_to_full_pair_11_5
 wafer_to_full_pair_11_6 wafer_to_full_pair_11_7 wafer_to_full_pair_11_8 wafer_to_full_pair_11_9 wafer_to_full_pair_11_10
 wafer_to_full_pair_11_11 wafer_to_full_pair_11_12 wafer_to_full_pair_12_1 wafer_to_full_pair_12_2 wafer_to_full_pair_12_3
 wafer_to_full_pair_12_4 wafer_to_full_pair_12_5 wafer_to_full_pair_12_6 wafer_to_full_pair_12_7 wafer_to_full_pair_12_8
 wafer_to_full_pair_12_9 wafer_to_full_pair_12_10 wafer_to_full_pair_12_11 wafer_to_full_pair_12_12 wafer_to_full_pair_13_1
 wafer_to_full_pair_13_2 wafer_to_full_pair_13_3 wafer_to_full_pair_13_4 wafer_to_full_pair_13_5 wafer_to_full_pair_13_6
 wafer_to_full_pair_13_7 wafer_to_full_pair_13_8 wafer_to_full_pair_13_9 wafer_to_full_pair_13_10 wafer_to_full_pair_13_11
 wafer_to_full_pair_13_12 wafer_to_full_pair_14_1 wafer_to_full_pair_14_2 wafer_to_full_pair_14_3 wafer_to_full_pair_14_4
 wafer_to_full_pair_14_5 wafer_to_full_pair_14_6 wafer_to_full_pair_14_7 wafer_to_full_pair_14_8 wafer_to_full_pair_14_9
 wafer_to_full_pair_14_10 wafer_to_full_pair_14_11 wafer_to_full_pair_14_12 wafer_to_full_pair_15_1 wafer_to_full_pair_15_2
 wafer_to_full_pair_15_3 wafer_to_full_pair_15_4 wafer_to_full_pair_15_5 wafer_to_full_pair_15_6 wafer_to_full_pair_15_7
 wafer_to_full_pair_15_8 wafer_to_full_pair_15_9 wafer_to_full_pair_15_10 wafer_to_full_pair_15_11 wafer_to_full_pair_15_12
 wafer_to_full_pair_16_1 wafer_to_full_pair_16_2 wafer_to_full_pair_16_3 wafer_to_full_pair_16_4 wafer_to_full_pair_16_5
 wafer_to_full_pair_16_6 wafer_to_full_pair_16_7 wafer_to_full_pair_16_8 wafer_to_full_pair_16_9 wafer_to_full_pair_16_10
 wafer_to_full_pair_16_11 wafer_to_full_pair_16_12 wafer_to_full_pair_17_1 wafer_to_full_pair_17_2 wafer_to_full_pair_17_3
 wafer_to_full_pair_17_4 wafer_to_full_pair_17_5 wafer_to_full_pair_17_6 wafer_to_full_pair_17_7 wafer_to_full_pair_17_8
 wafer_to_full_pair_17_9 wafer_to_full_pair_17_10 wafer_to_full_pair_17_11 wafer_to_full_pair_17_12 wafer_to_full_pair_18_1
 wafer_to_full_pair_18_2 wafer_to_full_pair_18_3 wafer_to_full_pair_18_4 wafer_to_full_pair_18_5 wafer_to_full_pair_18_6
 wafer_to_full_pair_18_7 wafer_to_full_pair_18_8 wafer_to_full_pair_18_9 wafer_to_full_pair_18_10 wafer_to_full_pair_18_11
 wafer_to_full_pair_18_12 wafer_to_full_pair_19_1 wafer_to_full_pair_19_2 wafer_to_full_pair_19_3 wafer_to_full_pair_19_4
 wafer_to_full_pair_19_5 wafer_to_full_pair_19_6 wafer_to_full_pair_19_7 wafer_to_full_pair_19_8 wafer_to_full_pair_19_9
 wafer_to_full_pair_19_10 wafer_to_full_pair_19_11 wafer_to_full_pair_19_12 wafer_to_full_pair_20_1 wafer_to_full_pair_20_2
 wafer_to_full_pair_20_3 wafer_to_full_pair_20_4 wafer_to_full_pair_20_5 wafer_to_full_pair_20_6 wafer_to_full_pair_20_7
 wafer_to_full_pair_20_8 wafer_to_full_pair_20_9 wafer_to_full_pair_20_10 wafer_to_full_pair_20_11 wafer_to_full_pair_20_12
 wafer_to_full_pair_21_1 wafer_to_full_pair_21_2 wafer_to_full_pair_21_3 wafer_to_full_pair_21_4 wafer_to_full_pair_21_5
 wafer_to_full_pair_21_6 wafer_to_full_pair_21_7 wafer_to_full_pair_21_8 wafer_to_full_pair_21_9 wafer_to_full_pair_21_10
 wafer_to_full_pair_21_11 wafer_to_full_pair_21_12 wafer_to_full_pair_22_1 wafer_to_full_pair_22_2 wafer_to_full_pair_22_3
 wafer_to_full_pair_22_4 wafer_to_full_pair_22_5 wafer_to_full_pair_22_6 wafer_to_full_pair_22_7 wafer_to_full_pair_22_8
 wafer_to_full_pair_22_9 wafer_to_full_pair_22_10 wafer_to_full_pair_22_11 wafer_to_full_pair_22_12 wafer_to_full_pair_23_1
 wafer_to_full_pair_23_2 wafer_to_full_pair_23_3 wafer_to_full_pair_23_4 wafer_to_full_pair_23_5 wafer_to_full_pair_23_6
 wafer_to_full_pair_23_7 wafer_to_full_pair_23_8 wafer_to_full_pair_23_9 wafer_to_full_pair_23_10 wafer_to_full_pair_23_11
 wafer_to_full_pair_23_12 wafer_to_full_pair_24_1 wafer_to_full_pair_24_2 wafer_to_full_pair_24_3 wafer_to_full_pair_24_4
 wafer_to_full_pair_24_5 wafer_to_full_pair_24_6 wafer_to_full_pair_24_7 wafer_to_full_pair_24_8 wafer_to_full_pair_24_9
 wafer_to_full_pair_24_10 wafer_to_full_pair_24_11 wafer_to_full_pair_24_12 wafer_to_mix_pair_25_1 wafer_to_mix_pair_25_2
 wafer_to_mix_pair_25_3 wafer_to_mix_pair_25_4 wafer_to_mix_pair_25_5 wafer_to_mix_pair_25_6 wafer_to_mix_pair_25_7
 wafer_to_mix_pair_25_8 wafer_to_mix_pair_26_1 wafer_to_mix_pair_26_2 wafer_to_mix_pair_26_3 wafer_to_mix_pair_26_4
 wafer_to_mix_pair_26_5 wafer_to_mix_pair_26_6 wafer_to_mix_pair_26_7 wafer_to_mix_pair_26_8 wafer_to_mix_pair_27_1
 wafer_to_mix_pair_27_2 wafer_to_mix_pair_27_3 wafer_to_mix_pair_27_4 wafer_to_mix_pair_27_5 wafer_to_mix_pair_27_6
 wafer_to_mix_pair_27_7 wafer_to_mix_pair_27_8 wafer_to_mix_pair_28_1 wafer_to_mix_pair_28_2 wafer_to_mix_pair_28_3
 wafer_to_mix_pair_28_4 wafer_to_mix_pair_28_5 wafer_to_mix_pair_28_6 wafer_to_mix_pair_28_7 wafer_to_mix_pair_28_8
 wafer_to_mix_pair_29_1 wafer_to_mix_pair_29_2 wafer_to_mix_pair_29_3 wafer_to_mix_pair_29_4 wafer_to_mix_pair_29_5
 wafer_to_mix_pair_29_6 wafer_to_mix_pair_29_7 wafer_to_mix_pair_29_8 wafer_to_mix_pair_30_1 wafer_to_mix_pair_30_2
 wafer_to_mix_pair_30_3 wafer_to_mix_pair_30_4 wafer_to_mix_pair_30_5 wafer_to_mix_pair_30_6 wafer_to_mix_pair_30_7
 wafer_to_mix_pair_30_8 wafer_to_mix_pair_31_1 wafer_to_mix_pair_31_2 wafer_to_mix_pair_31_3 wafer_to_mix_pair_31_4
 wafer_to_mix_pair_31_5 wafer_to_mix_pair_31_6 wafer_to_mix_pair_31_7 wafer_to_mix_pair_31_8 wafer_to_mix_pair_32_1
 wafer_to_mix_pair_32_2 wafer_to_mix_pair_32_3 wafer_to_mix_pair_32_4 wafer_to_mix_pair_32_5 wafer_to_mix_pair_32_6
 wafer_to_mix_pair_32_7 wafer_to_mix_pair_32_8 wafer_to_mix_pair_33_1 wafer_to_mix_pair_33_2 wafer_to_mix_pair_33_3
 wafer_to_mix_pair_33_4 wafer_to_mix_pair_33_5 wafer_to_mix_pair_33_6 wafer_to_mix_pair_33_7 wafer_to_mix_pair_33_8
 wafer_to_mix_pair_34_1 wafer_to_mix_pair_34_2 wafer_to_mix_pair_34_3 wafer_to_mix_pair_34_4 wafer_to_mix_pair_34_5
 wafer_to_mix_pair_34_6 wafer_to_mix_pair_34_7 wafer_to_mix_pair_34_8 wafer_to_mix_pair_35_1 wafer_to_mix_pair_35_2
 wafer_to_mix_pair_35_3 wafer_to_mix_pair_35_4 wafer_to_mix_pair_35_5 wafer_to_mix_pair_35_6 wafer_to_mix_pair_35_7
 wafer_to_mix_pair_35_8 wafer_to_mix_pair_36_1 wafer_to_mix_pair_36_2 wafer_to_mix_pair_36_3 wafer_to_mix_pair_36_4
 wafer_to_mix_pair_36_5 wafer_to_mix_pair_36_6 wafer_to_mix_pair_36_7 wafer_to_mix_pair_36_8 wafer_to_mix_pair_37_1
 wafer_to_mix_pair_37_2 wafer_to_mix_pair_37_3 wafer_to_mix_pair_37_4 wafer_to_mix_pair_37_5 wafer_to_mix_pair_37_6
 wafer_to_mix_pair_37_7 wafer_to_mix_pair_37_8 wafer_to_mix_pair_38_1 wafer_to_mix_pair_38_2 wafer_to_mix_pair_38_3
 wafer_to_mix_pair_38_4 wafer_to_mix_pair_38_5 wafer_to_mix_pair_38_6 wafer_to_mix_pair_38_7 wafer_to_mix_pair_38_8
 wafer_to_mix_pair_39_1 wafer_to_mix_pair_39_2 wafer_to_mix_pair_39_3 wafer_to_mix_pair_39_4 wafer_to_mix_pair_39_5
 wafer_to_mix_pair_39_6 wafer_to_mix_pair_39_7 wafer_to_mix_pair_39_8 assign_full_1_1_1 assign_full_1_1_2
 assign_full_1_1_3 assign_full_1_1_4 assign_full_1_1_5 assign_full_1_1_6 assign_full_1_1_7 assign_full_1_1_8
 assign_full_1_1_9 assign_full_1_1_10 assign_full_1_2_1 assign_full_1_2_2 assign_full_1_2_3 assign_full_1_2_4
 assign_full_1_2_5 assign_full_1_2_6 assign_full_1_2_7 assign_full_1_2_8 assign_full_1_2_9 assign_full_1_2_10
 assign_full_2_1_1 assign_full_2_1_2 assign_full_2_1_3 assign_full_2_1_4 assign_full_2_1_5 assign_full_2_1_6
 assign_full_2_1_7 assign_full_2_1_8 assign_full_2_1_9 assign_full_2_1_10 assign_full_2_2_1 assign_full_2_2_2
 assign_full_2_2_3 assign_full_2_2_4 assign_full_2_2_5 assign_full_2_2_6 assign_full_2_2_7 assign_full_2_2_8
 assign_full_2_2_9 assign_full_2_2_10 assign_full_3_1_1 assign_full_3_1_2 assign_full_3_1_3 assign_full_3_1_4
 assign_full_3_1_5 assign_full_3_1_6 assign_full_3_1_7 assign_full_3_1_8 assign_full_3_1_9 assign_full_3_1_10
 assign_full_3_2_1 assign_full_3_2_2 assign_full_3_2_3 assign_full_3_2_4 assign_full_3_2_5 assign_full_3_2_6
 assign_full_3_2_7 assign_full_3_2_8 assign_full_3_2_9 assign_full_3_2_10 assign_full_4_1_1 assign_full_4_1_2
 assign_full_4_1_3 assign_full_4_1_4 assign_full_4_1_5 assign_full_4_1_6 assign_full_4_1_7 assign_full_4_1_8
 assign_full_4_1_9 assign_full_4_1_10 assign_full_4_2_1 assign_full_4_2_2 assign_full_4_2_3 assign_full_4_2_4
 assign_full_4_2_5 assign_full_4_2_6 assign_full_4_2_7 assign_full_4_2_8 assign_full_4_2_9 assign_full_4_2_10
 assign_full_5_1_1 assign_full_5_1_2 assign_full_5_1_3 assign_full_5_1_4 assign_full_5_1_5 assign_full_5_1_6
 assign_full_5_1_7 assign_full_5_1_8 assign_full_5_1_9 assign_full_5_1_10 assign_full_5_2_1 assign_full_5_2_2
 assign_full_5_2_3 assign_full_5_2_4 assign_full_5_2_5 assign_full_5_2_6 assign_full_5_2_7 assign_full_5_2_8
 assign_full_5_2_9 assign_full_5_2_10 assign_full_6_1_1 assign_full_6_1_2 assign_full_6_1_3 assign_full_6_1_4
 assign_full_6_1_5 assign_full_6_1_6 assign_full_6_1_7 assign_full_6_1_8 assign_full_6_1_9 assign_full_6_1_10
 assign_full_6_2_1 assign_full_6_2_2 assign_full_6_2_3 assign_full_6_2_4 assign_full_6_2_5 assign_full_6_2_6
 assign_full_6_2_7 assign_full_6_2_8 assign_full_6_2_9 assign_full_6_2_10 assign_full_7_1_1 assign_full_7_1_2
 assign_full_7_1_3 assign_full_7_1_4 assign_full_7_1_5 assign_full_7_1_6 assign_full_7_1_7 assign_full_7_1_8
 assign_full_7_1_9 assign_full_7_1_10 assign_full_7_2_1 assign_full_7_2_2 assign_full_7_2_3 assign_full_7_2_4
 assign_full_7_2_5 assign_full_7_2_6 assign_full_7_2_7 assign_full_7_2_8 assign_full_7_2_9 assign_full_7_2_10
 assign_full_8_1_1 assign_full_8_1_2 assign_full_8_1_3 assign_full_8_1_4 assign_full_8_1_5 assign_full_8_1_6
 assign_full_8_1_7 assign_full_8_1_8 assign_full_8_1_9 assign_full_8_1_10 assign_full_8_2_1 assign_full_8_2_2
 assign_full_8_2_3 assign_full_8_2_4 assign_full_8_2_5 assign_full_8_2_6 assign_full_8_2_7 assign_full_8_2_8
 assign_full_8_2_9 assign_full_8_2_10 assign_full_9_1_1 assign_full_9_1_2 assign_full_9_1_3 assign_full_9_1_4
 assign_full_9_1_5 assign_full_9_1_6 assign_full_9_1_7 assign_full_9_1_8 assign_full_9_1_9 assign_full_9_1_10
 assign_full_9_2_1 assign_full_9_2_2 assign_full_9_2_3 assign_full_9_2_4 assign_full_9_2_5 assign_full_9_2_6
 assign_full_9_2_7 assign_full_9_2_8 assign_full_9_2_9 assign_full_9_2_10 assign_full_10_1_1 assign_full_10_1_2
 assign_full_10_1_3 assign_full_10_1_4 assign_full_10_1_5 assign_full_10_1_6 assign_full_10_1_7 assign_full_10_1_8
 assign_full_10_1_9 assign_full_10_1_10 assign_full_10_2_1 assign_full_10_2_2 assign_full_10_2_3 assign_full_10_2_4
 assign_full_10_2_5 assign_full_10_2_6 assign_full_10_2_7 assign_full_10_2_8 assign_full_10_2_9 assign_full_10_2_10
 assign_full_11_1_1 assign_full_11_1_2 assign_full_11_1_3 assign_full_11_1_4 assign_full_11_1_5 assign_full_11_1_6
 assign_full_11_1_7 assign_full_11_1_8 assign_full_11_1_9 assign_full_11_1_10 assign_full_11_2_1 assign_full_11_2_2
 assign_full_11_2_3 assign_full_11_2_4 assign_full_11_2_5 assign_full_11_2_6 assign_full_11_2_7 assign_full_11_2_8
 assign_full_11_2_9 assign_full_11_2_10 assign_full_12_1_1 assign_full_12_1_2 assign_full_12_1_3 assign_full_12_1_4
 assign_full_12_1_5 assign_full_12_1_6 assign_full_12_1_7 assign_full_12_1_8 assign_full_12_1_9 assign_full_12_1_10
 assign_full_12_2_1 assign_full_12_2_2 assign_full_12_2_3 assign_full_12_2_4 assign_full_12_2_5 assign_full_12_2_6
 assign_full_12_2_7 assign_full_12_2_8 assign_full_12_2_9 assign_full_12_2_10 full_slot_used_1_1 full_slot_used_1_2
 full_slot_used_1_3 full_slot_used_1_4 full_slot_used_1_5 full_slot_used_1_6 full_slot_used_1_7 full_slot_used_1_8
 full_slot_used_1_9 full_slot_used_1_10 full_slot_used_2_1 full_slot_used_2_2 full_slot_used_2_3 full_slot_used_2_4
 full_slot_used_2_5 full_slot_used_2_6 full_slot_used_2_7 full_slot_used_2_8 full_slot_used_2_9 full_slot_used_2_10
 full_pec_pairs_1_1 full_pec_pairs_1_2 full_pec_pairs_1_3 full_pec_pairs_1_4 full_pec_pairs_1_5 full_pec_pairs_1_6
 full_pec_pairs_1_7 full_pec_pairs_1_8 full_pec_pairs_1_9 full_pec_pairs_1_10 full_pec_pairs_2_1 full_pec_pairs_2_2
 full_pec_pairs_2_3 full_pec_pairs_2_4 full_pec_pairs_2_5 full_pec_pairs_2_6 full_pec_pairs_2_7 full_pec_pairs_2_8
 full_pec_pairs_2_9 full_pec_pairs_2_10 full_after_mix_1_1 full_after_mix_1_2 full_after_mix_1_3 full_after_mix_1_4
 full_after_mix_1_5 full_after_mix_1_6 full_after_mix_1_7 full_after_mix_1_8 full_after_mix_1_9 full_after_mix_1_10
 full_after_mix_2_1 full_after_mix_2_2 full_after_mix_2_3 full_after_mix_2_4 full_after_mix_2_5 full_after_mix_2_6
 full_after_mix_2_7 full_after_mix_2_8 full_after_mix_2_9 full_after_mix_2_10 assign_mix_1_1_1 assign_mix_1_1_2
 assign_mix_1_1_3 assign_mix_1_1_4 assign_mix_1_1_5 assign_mix_1_1_6 assign_mix_1_1_7 assign_mix_1_1_8
 assign_mix_1_2_1 assign_mix_1_2_2 assign_mix_1_2_3 assign_mix_1_2_4 assign_mix_1_2_5 assign_mix_1_2_6
 assign_mix_1_2_7 assign_mix_1_2_8 assign_mix_2_1_1 assign_mix_2_1_2 assign_mix_2_1_3 assign_mix_2_1_4
 assign_mix_2_1_5 assign_mix_2_1_6 assign_mix_2_1_7 assign_mix_2_1_8 assign_mix_2_2_1 assign_mix_2_2_2
 assign_mix_2_2_3 assign_mix_2_2_4 assign_mix_2_2_5 assign_mix_2_2_6 assign_mix_2_2_7 assign_mix_2_2_8
 assign_mix_3_1_1 assign_mix_3_1_2 assign_mix_3_1_3 assign_mix_3_1_4 assign_mix_3_1_5 assign_mix_3_1_6
 assign_mix_3_1_7 assign_mix_3_1_8 assign_mix_3_2_1 assign_mix_3_2_2 assign_mix_3_2_3 assign_mix_3_2_4
 assign_mix_3_2_5 assign_mix_3_2_6 assign_mix_3_2_7 assign_mix_3_2_8 assign_mix_4_1_1 assign_mix_4_1_2
 assign_mix_4_1_3 assign_mix_4_1_4 assign_mix_4_1_5 assign_mix_4_1_6 assign_mix_4_1_7 assign_mix_4_1_8
 assign_mix_4_2_1 assign_mix_4_2_2 assign_mix_4_2_3 assign_mix_4_2_4 assign_mix_4_2_5 assign_mix_4_2_6
 assign_mix_4_2_7 assign_mix_4_2_8 assign_mix_5_1_1 assign_mix_5_1_2 assign_mix_5_1_3 assign_mix_5_1_4
 assign_mix_5_1_5 assign_mix_5_1_6 assign_mix_5_1_7 assign_mix_5_1_8 assign_mix_5_2_1 assign_mix_5_2_2
 assign_mix_5_2_3 assign_mix_5_2_4 assign_mix_5_2_5 assign_mix_5_2_6 assign_mix_5_2_7 assign_mix_5_2_8
 assign_mix_6_1_1 assign_mix_6_1_2 assign_mix_6_1_3 assign_mix_6_1_4 assign_mix_6_1_5 assign_mix_6_1_6
 assign_mix_6_1_7 assign_mix_6_1_8 assign_mix_6_2_1 assign_mix_6_2_2 assign_mix_6_2_3 assign_mix_6_2_4
 assign_mix_6_2_5 assign_mix_6_2_6 assign_mix_6_2_7 assign_mix_6_2_8 assign_mix_7_1_1 assign_mix_7_1_2
 assign_mix_7_1_3 assign_mix_7_1_4 assign_mix_7_1_5 assign_mix_7_1_6 assign_mix_7_1_7 assign_mix_7_1_8
 assign_mix_7_2_1 assign_mix_7_2_2 assign_mix_7_2_3 assign_mix_7_2_4 assign_mix_7_2_5 assign_mix_7_2_6
 assign_mix_7_2_7 assign_mix_7_2_8 assign_mix_8_1_1 assign_mix_8_1_2 assign_mix_8_1_3 assign_mix_8_1_4
 assign_mix_8_1_5 assign_mix_8_1_6 assign_mix_8_1_7 assign_mix_8_1_8 assign_mix_8_2_1 assign_mix_8_2_2
 assign_mix_8_2_3 assign_mix_8_2_4 assign_mix_8_2_5 assign_mix_8_2_6 assign_mix_8_2_7 assign_mix_8_2_8
 mix_pos_used_1_1 mix_pos_used_1_2 mix_pos_used_1_3 mix_pos_used_1_4 mix_pos_used_1_5 mix_pos_used_1_6
 mix_pos_used_1_7 mix_pos_used_1_8 mix_pos_used_2_1 mix_pos_used_2_2 mix_pos_used_2_3 mix_pos_used_2_4
 mix_pos_used_2_5 mix_pos_used_2_6 mix_pos_used_2_7 mix_pos_used_2_8 mix_cycle_used_1_1 mix_cycle_used_1_2
 mix_cycle_used_1_3 mix_cycle_used_1_4 mix_cycle_used_1_5 mix_cycle_used_1_6 mix_cycle_used_1_7 mix_cycle_used_1_8
 mix_cycle_used_1_9 mix_cycle_used_2_1 mix_cycle_used_2_2 mix_cycle_used_2_3 mix_cycle_used_2_4 mix_cycle_used_2_5
 mix_cycle_used_2_6 mix_cycle_used_2_7 mix_cycle_used_2_8 mix_cycle_used_2_9 mix_active_1 mix_active_2
 mix_last_cycle_1_1 mix_last_cycle_1_2 mix_last_cycle_1_3 mix_last_cycle_1_4 mix_last_cycle_1_5 mix_last_cycle_1_6
 mix_last_cycle_1_7 mix_last_cycle_1_8 mix_last_cycle_1_9 mix_last_cycle_2_1 mix_last_cycle_2_2 mix_last_cycle_2_3
 mix_last_cycle_2_4 mix_last_cycle_2_5 mix_last_cycle_2_6 mix_last_cycle_2_7 mix_last_cycle_2_8 mix_last_cycle_2_9
End
