\ SCIP STATISTICS
\   Problem name     : petri_batch_transfer
\   Variables        : 1861 (1590 binary, 0 integer, 0 implicit integer, 271 continuous)
\   Constraints      : 3810
Minimize
 Obj: +1 c_max
Subject to
 mode_assign_1: +1 mode_1_1 +1 mode_2_1 = +1
 mode_assign_2: +1 mode_1_2 +1 mode_2_2 = +1
 mode_assign_3: +1 mode_1_3 +1 mode_2_3 = +1
 mode_assign_4: +1 mode_1_4 +1 mode_2_4 = +1
 mode_assign_5: +1 mode_1_5 +1 mode_2_5 = +1
 mode_assign_6: +1 mode_1_6 +1 mode_2_6 = +1
 mode_assign_7: +1 mode_1_7 +1 mode_2_7 = +1
 mode_assign_8: +1 mode_1_8 +1 mode_2_8 = +1
 mode_assign_9: +1 mode_1_9 +1 mode_2_9 = +1
 mode_assign_10: +1 mode_1_10 +1 mode_2_10 = +1
 mode_assign_11: +1 mode_1_11 +1 mode_2_11 = +1
 mode_assign_12: +1 mode_1_12 +1 mode_2_12 = +1
 mode_assign_13: +1 mode_1_13 +1 mode_2_13 = +1
 mode_assign_14: +1 mode_1_14 +1 mode_2_14 = +1
 mode_assign_15: +1 mode_1_15 +1 mode_2_15 = +1
 mode_assign_16: +1 mode_1_16 +1 mode_2_16 = +1
 mode_assign_17: +1 mode_1_17 +1 mode_2_17 = +1
 mode_assign_18: +1 mode_1_18 +1 mode_2_18 = +1
 mode_assign_19: +1 mode_1_19 +1 mode_2_19 = +1
 mode_assign_20: +1 mode_1_20 +1 mode_2_20 = +1
 mode_assign_21: +1 mode_1_21 +1 mode_2_21 = +1
 mode_assign_22: +1 mode_1_22 +1 mode_2_22 = +1
 mode_assign_23: +1 mode_1_23 +1 mode_2_23 = +1
 mode_assign_24: +1 mode_1_24 +1 mode_2_24 = +1
 mode_assign_25: +1 mode_1_25 +1 mode_2_25 = +1
 mode_assign_26: +1 mode_1_26 +1 mode_2_26 = +1
 mode_assign_27: +1 mode_1_27 +1 mode_2_27 = +1
 mode_assign_28: +1 mode_1_28 +1 mode_2_28 = +1
 mode_assign_29: +1 mode_1_29 +1 mode_2_29 = +1
 mode_assign_30: +1 mode_1_30 +1 mode_2_30 = +1
 mode_assign_31: +1 mode_1_31 +1 mode_2_31 = +1
 mode_assign_32: +1 mode_1_32 +1 mode_2_32 = +1
 mode_assign_33: +1 mode_1_33 +1 mode_2_33 = +1
 mode_assign_34: +1 mode_1_34 +1 mode_2_34 = +1
 mode_assign_35: +1 mode_1_35 +1 mode_2_35 = +1
 mode_assign_36: +1 mode_1_36 +1 mode_2_36 = +1
 mode_assign_37: +1 mode_1_37 +1 mode_2_37 = +1
 mode_assign_38: +1 mode_1_38 +1 mode_2_38 = +1
 mode_assign_39: +1 mode_1_39 +1 mode_2_39 = +1
 mode_assign_40: +1 mode_1_40 +1 mode_2_40 = +1
 wafer_unique_1: +1 w_1_1 +1 w_1_2 +1 w_1_3 +1 w_1_4 +1 w_1_5 +1 w_1_6 +1 w_1_7 +1 w_1_8 +1 w_1_9 +1 w_1_10
  <= +1
 wafer_unique_2: +1 w_2_1 +1 w_2_2 +1 w_2_3 +1 w_2_4 +1 w_2_5 +1 w_2_6 +1 w_2_7 +1 w_2_8 +1 w_2_9 +1 w_2_10
  <= +1
 wafer_unique_3: +1 w_3_1 +1 w_3_2 +1 w_3_3 +1 w_3_4 +1 w_3_5 +1 w_3_6 +1 w_3_7 +1 w_3_8 +1 w_3_9 +1 w_3_10
  <= +1
 wafer_unique_4: +1 w_4_1 +1 w_4_2 +1 w_4_3 +1 w_4_4 +1 w_4_5 +1 w_4_6 +1 w_4_7 +1 w_4_8 +1 w_4_9 +1 w_4_10
  <= +1
 wafer_unique_5: +1 w_5_1 +1 w_5_2 +1 w_5_3 +1 w_5_4 +1 w_5_5 +1 w_5_6 +1 w_5_7 +1 w_5_8 +1 w_5_9 +1 w_5_10
  <= +1
 wafer_unique_6: +1 w_6_1 +1 w_6_2 +1 w_6_3 +1 w_6_4 +1 w_6_5 +1 w_6_6 +1 w_6_7 +1 w_6_8 +1 w_6_9 +1 w_6_10
  <= +1
 wafer_unique_7: +1 w_7_1 +1 w_7_2 +1 w_7_3 +1 w_7_4 +1 w_7_5 +1 w_7_6 +1 w_7_7 +1 w_7_8 +1 w_7_9 +1 w_7_10
  <= +1
 wafer_unique_8: +1 w_8_1 +1 w_8_2 +1 w_8_3 +1 w_8_4 +1 w_8_5 +1 w_8_6 +1 w_8_7 +1 w_8_8 +1 w_8_9 +1 w_8_10
  <= +1
 wafer_unique_9: +1 w_9_1 +1 w_9_2 +1 w_9_3 +1 w_9_4 +1 w_9_5 +1 w_9_6 +1 w_9_7 +1 w_9_8 +1 w_9_9 +1 w_9_10
  <= +1
 wafer_unique_10: +1 w_10_1 +1 w_10_2 +1 w_10_3 +1 w_10_4 +1 w_10_5 +1 w_10_6 +1 w_10_7 +1 w_10_8 +1 w_10_9
  +1 w_10_10 <= +1
 wafer_unique_11: +1 w_11_1 +1 w_11_2 +1 w_11_3 +1 w_11_4 +1 w_11_5 +1 w_11_6 +1 w_11_7 +1 w_11_8 +1 w_11_9
  +1 w_11_10 <= +1
 wafer_unique_12: +1 w_12_1 +1 w_12_2 +1 w_12_3 +1 w_12_4 +1 w_12_5 +1 w_12_6 +1 w_12_7 +1 w_12_8 +1 w_12_9
  +1 w_12_10 <= +1
 wafer_unique_13: +1 w_13_1 +1 w_13_2 +1 w_13_3 +1 w_13_4 +1 w_13_5 +1 w_13_6 +1 w_13_7 +1 w_13_8 +1 w_13_9
  +1 w_13_10 <= +1
 wafer_unique_14: +1 w_14_1 +1 w_14_2 +1 w_14_3 +1 w_14_4 +1 w_14_5 +1 w_14_6 +1 w_14_7 +1 w_14_8 +1 w_14_9
  +1 w_14_10 <= +1
 wafer_unique_15: +1 w_15_1 +1 w_15_2 +1 w_15_3 +1 w_15_4 +1 w_15_5 +1 w_15_6 +1 w_15_7 +1 w_15_8 +1 w_15_9
  +1 w_15_10 <= +1
 wafer_unique_16: +1 w_16_1 +1 w_16_2 +1 w_16_3 +1 w_16_4 +1 w_16_5 +1 w_16_6 +1 w_16_7 +1 w_16_8 +1 w_16_9
  +1 w_16_10 <= +1
 wafer_unique_17: +1 w_17_1 +1 w_17_2 +1 w_17_3 +1 w_17_4 +1 w_17_5 +1 w_17_6 +1 w_17_7 +1 w_17_8 +1 w_17_9
  +1 w_17_10 <= +1
 wafer_unique_18: +1 w_18_1 +1 w_18_2 +1 w_18_3 +1 w_18_4 +1 w_18_5 +1 w_18_6 +1 w_18_7 +1 w_18_8 +1 w_18_9
  +1 w_18_10 <= +1
 wafer_unique_19: +1 w_19_1 +1 w_19_2 +1 w_19_3 +1 w_19_4 +1 w_19_5 +1 w_19_6 +1 w_19_7 +1 w_19_8 +1 w_19_9
  +1 w_19_10 <= +1
 wafer_unique_20: +1 w_20_1 +1 w_20_2 +1 w_20_3 +1 w_20_4 +1 w_20_5 +1 w_20_6 +1 w_20_7 +1 w_20_8 +1 w_20_9
  +1 w_20_10 <= +1
 wafer_unique_21: +1 w_21_1 +1 w_21_2 +1 w_21_3 +1 w_21_4 +1 w_21_5 +1 w_21_6 +1 w_21_7 +1 w_21_8 +1 w_21_9
  +1 w_21_10 <= +1
 wafer_unique_22: +1 w_22_1 +1 w_22_2 +1 w_22_3 +1 w_22_4 +1 w_22_5 +1 w_22_6 +1 w_22_7 +1 w_22_8 +1 w_22_9
  +1 w_22_10 <= +1
 wafer_unique_23: +1 w_23_1 +1 w_23_2 +1 w_23_3 +1 w_23_4 +1 w_23_5 +1 w_23_6 +1 w_23_7 +1 w_23_8 +1 w_23_9
  +1 w_23_10 <= +1
 wafer_unique_24: +1 w_24_1 +1 w_24_2 +1 w_24_3 +1 w_24_4 +1 w_24_5 +1 w_24_6 +1 w_24_7 +1 w_24_8 +1 w_24_9
  +1 w_24_10 <= +1
 wafer_unique_25: +1 w_25_1 +1 w_25_2 +1 w_25_3 +1 w_25_4 +1 w_25_5 +1 w_25_6 +1 w_25_7 +1 w_25_8 +1 w_25_9
  +1 w_25_10 <= +1
 wafer_unique_26: +1 w_26_1 +1 w_26_2 +1 w_26_3 +1 w_26_4 +1 w_26_5 +1 w_26_6 +1 w_26_7 +1 w_26_8 +1 w_26_9
  +1 w_26_10 <= +1
 wafer_unique_27: +1 w_27_1 +1 w_27_2 +1 w_27_3 +1 w_27_4 +1 w_27_5 +1 w_27_6 +1 w_27_7 +1 w_27_8 +1 w_27_9
  +1 w_27_10 <= +1
 wafer_unique_28: +1 w_28_1 +1 w_28_2 +1 w_28_3 +1 w_28_4 +1 w_28_5 +1 w_28_6 +1 w_28_7 +1 w_28_8 +1 w_28_9
  +1 w_28_10 <= +1
 wafer_unique_29: +1 w_29_1 +1 w_29_2 +1 w_29_3 +1 w_29_4 +1 w_29_5 +1 w_29_6 +1 w_29_7 +1 w_29_8 +1 w_29_9
  +1 w_29_10 <= +1
 wafer_unique_30: +1 w_30_1 +1 w_30_2 +1 w_30_3 +1 w_30_4 +1 w_30_5 +1 w_30_6 +1 w_30_7 +1 w_30_8 +1 w_30_9
  +1 w_30_10 <= +1
 wafer_unique_31: +1 w_31_1 +1 w_31_2 +1 w_31_3 +1 w_31_4 +1 w_31_5 +1 w_31_6 +1 w_31_7 +1 w_31_8 +1 w_31_9
  +1 w_31_10 <= +1
 wafer_unique_32: +1 w_32_1 +1 w_32_2 +1 w_32_3 +1 w_32_4 +1 w_32_5 +1 w_32_6 +1 w_32_7 +1 w_32_8 +1 w_32_9
  +1 w_32_10 <= +1
 wafer_unique_33: +1 w_33_1 +1 w_33_2 +1 w_33_3 +1 w_33_4 +1 w_33_5 +1 w_33_6 +1 w_33_7 +1 w_33_8 +1 w_33_9
  +1 w_33_10 <= +1
 wafer_unique_34: +1 w_34_1 +1 w_34_2 +1 w_34_3 +1 w_34_4 +1 w_34_5 +1 w_34_6 +1 w_34_7 +1 w_34_8 +1 w_34_9
  +1 w_34_10 <= +1
 wafer_unique_35: +1 w_35_1 +1 w_35_2 +1 w_35_3 +1 w_35_4 +1 w_35_5 +1 w_35_6 +1 w_35_7 +1 w_35_8 +1 w_35_9
  +1 w_35_10 <= +1
 wafer_unique_36: +1 w_36_1 +1 w_36_2 +1 w_36_3 +1 w_36_4 +1 w_36_5 +1 w_36_6 +1 w_36_7 +1 w_36_8 +1 w_36_9
  +1 w_36_10 <= +1
 wafer_unique_37: +1 w_37_1 +1 w_37_2 +1 w_37_3 +1 w_37_4 +1 w_37_5 +1 w_37_6 +1 w_37_7 +1 w_37_8 +1 w_37_9
  +1 w_37_10 <= +1
 wafer_unique_38: +1 w_38_1 +1 w_38_2 +1 w_38_3 +1 w_38_4 +1 w_38_5 +1 w_38_6 +1 w_38_7 +1 w_38_8 +1 w_38_9
  +1 w_38_10 <= +1
 wafer_unique_39: +1 w_39_1 +1 w_39_2 +1 w_39_3 +1 w_39_4 +1 w_39_5 +1 w_39_6 +1 w_39_7 +1 w_39_8 +1 w_39_9
  +1 w_39_10 <= +1
 wafer_unique_40: +1 w_40_1 +1 w_40_2 +1 w_40_3 +1 w_40_4 +1 w_40_5 +1 w_40_6 +1 w_40_7 +1 w_40_8 +1 w_40_9
  +1 w_40_10 <= +1
 batch_size_1: +1 w_1_1 +1 w_2_1 +1 w_3_1 +1 w_4_1 +1 w_5_1 +1 w_6_1 +1 w_7_1 +1 w_8_1 +1 w_9_1 +1 w_10_1
  +1 w_11_1 +1 w_12_1 +1 w_13_1 +1 w_14_1 +1 w_15_1 +1 w_16_1 +1 w_17_1 +1 w_18_1 +1 w_19_1 +1 w_20_1
  +1 w_21_1 +1 w_22_1 +1 w_23_1 +1 w_24_1 +1 w_25_1 +1 w_26_1 +1 w_27_1 +1 w_28_1 +1 w_29_1 +1 w_30_1
  +1 w_31_1 +1 w_32_1 +1 w_33_1 +1 w_34_1 +1 w_35_1 +1 w_36_1 +1 w_37_1 +1 w_38_1 +1 w_39_1 +1 w_40_1
  +1 pec_1_1 +2 pec_2_1 +3 pec_3_1 +4 pec_4_1 = +4
 pec_onehot_1: +1 pec_0_1 +1 pec_1_1 +1 pec_2_1 +1 pec_3_1 +1 pec_4_1 = +1
 batch_size_2: +1 w_1_2 +1 w_2_2 +1 w_3_2 +1 w_4_2 +1 w_5_2 +1 w_6_2 +1 w_7_2 +1 w_8_2 +1 w_9_2 +1 w_10_2
  +1 w_11_2 +1 w_12_2 +1 w_13_2 +1 w_14_2 +1 w_15_2 +1 w_16_2 +1 w_17_2 +1 w_18_2 +1 w_19_2 +1 w_20_2
  +1 w_21_2 +1 w_22_2 +1 w_23_2 +1 w_24_2 +1 w_25_2 +1 w_26_2 +1 w_27_2 +1 w_28_2 +1 w_29_2 +1 w_30_2
  +1 w_31_2 +1 w_32_2 +1 w_33_2 +1 w_34_2 +1 w_35_2 +1 w_36_2 +1 w_37_2 +1 w_38_2 +1 w_39_2 +1 w_40_2
  +1 pec_1_2 +2 pec_2_2 +3 pec_3_2 +4 pec_4_2 = +4
 pec_onehot_2: +1 pec_0_2 +1 pec_1_2 +1 pec_2_2 +1 pec_3_2 +1 pec_4_2 = +1
 batch_size_3: +1 w_1_3 +1 w_2_3 +1 w_3_3 +1 w_4_3 +1 w_5_3 +1 w_6_3 +1 w_7_3 +1 w_8_3 +1 w_9_3 +1 w_10_3
  +1 w_11_3 +1 w_12_3 +1 w_13_3 +1 w_14_3 +1 w_15_3 +1 w_16_3 +1 w_17_3 +1 w_18_3 +1 w_19_3 +1 w_20_3
  +1 w_21_3 +1 w_22_3 +1 w_23_3 +1 w_24_3 +1 w_25_3 +1 w_26_3 +1 w_27_3 +1 w_28_3 +1 w_29_3 +1 w_30_3
  +1 w_31_3 +1 w_32_3 +1 w_33_3 +1 w_34_3 +1 w_35_3 +1 w_36_3 +1 w_37_3 +1 w_38_3 +1 w_39_3 +1 w_40_3
  +1 pec_1_3 +2 pec_2_3 +3 pec_3_3 +4 pec_4_3 = +4
 pec_onehot_3: +1 pec_0_3 +1 pec_1_3 +1 pec_2_3 +1 pec_3_3 +1 pec_4_3 = +1
 batch_size_4: +1 w_1_4 +1 w_2_4 +1 w_3_4 +1 w_4_4 +1 w_5_4 +1 w_6_4 +1 w_7_4 +1 w_8_4 +1 w_9_4 +1 w_10_4
  +1 w_11_4 +1 w_12_4 +1 w_13_4 +1 w_14_4 +1 w_15_4 +1 w_16_4 +1 w_17_4 +1 w_18_4 +1 w_19_4 +1 w_20_4
  +1 w_21_4 +1 w_22_4 +1 w_23_4 +1 w_24_4 +1 w_25_4 +1 w_26_4 +1 w_27_4 +1 w_28_4 +1 w_29_4 +1 w_30_4
  +1 w_31_4 +1 w_32_4 +1 w_33_4 +1 w_34_4 +1 w_35_4 +1 w_36_4 +1 w_37_4 +1 w_38_4 +1 w_39_4 +1 w_40_4
  +1 pec_1_4 +2 pec_2_4 +3 pec_3_4 +4 pec_4_4 = +4
 pec_onehot_4: +1 pec_0_4 +1 pec_1_4 +1 pec_2_4 +1 pec_3_4 +1 pec_4_4 = +1
 batch_size_5: +1 w_1_5 +1 w_2_5 +1 w_3_5 +1 w_4_5 +1 w_5_5 +1 w_6_5 +1 w_7_5 +1 w_8_5 +1 w_9_5 +1 w_10_5
  +1 w_11_5 +1 w_12_5 +1 w_13_5 +1 w_14_5 +1 w_15_5 +1 w_16_5 +1 w_17_5 +1 w_18_5 +1 w_19_5 +1 w_20_5
  +1 w_21_5 +1 w_22_5 +1 w_23_5 +1 w_24_5 +1 w_25_5 +1 w_26_5 +1 w_27_5 +1 w_28_5 +1 w_29_5 +1 w_30_5
  +1 w_31_5 +1 w_32_5 +1 w_33_5 +1 w_34_5 +1 w_35_5 +1 w_36_5 +1 w_37_5 +1 w_38_5 +1 w_39_5 +1 w_40_5
  +1 pec_1_5 +2 pec_2_5 +3 pec_3_5 +4 pec_4_5 = +4
 pec_onehot_5: +1 pec_0_5 +1 pec_1_5 +1 pec_2_5 +1 pec_3_5 +1 pec_4_5 = +1
 batch_size_6: +1 w_1_6 +1 w_2_6 +1 w_3_6 +1 w_4_6 +1 w_5_6 +1 w_6_6 +1 w_7_6 +1 w_8_6 +1 w_9_6 +1 w_10_6
  +1 w_11_6 +1 w_12_6 +1 w_13_6 +1 w_14_6 +1 w_15_6 +1 w_16_6 +1 w_17_6 +1 w_18_6 +1 w_19_6 +1 w_20_6
  +1 w_21_6 +1 w_22_6 +1 w_23_6 +1 w_24_6 +1 w_25_6 +1 w_26_6 +1 w_27_6 +1 w_28_6 +1 w_29_6 +1 w_30_6
  +1 w_31_6 +1 w_32_6 +1 w_33_6 +1 w_34_6 +1 w_35_6 +1 w_36_6 +1 w_37_6 +1 w_38_6 +1 w_39_6 +1 w_40_6
  +1 pec_1_6 +2 pec_2_6 +3 pec_3_6 +4 pec_4_6 = +4
 pec_onehot_6: +1 pec_0_6 +1 pec_1_6 +1 pec_2_6 +1 pec_3_6 +1 pec_4_6 = +1
 batch_size_7: +1 w_1_7 +1 w_2_7 +1 w_3_7 +1 w_4_7 +1 w_5_7 +1 w_6_7 +1 w_7_7 +1 w_8_7 +1 w_9_7 +1 w_10_7
  +1 w_11_7 +1 w_12_7 +1 w_13_7 +1 w_14_7 +1 w_15_7 +1 w_16_7 +1 w_17_7 +1 w_18_7 +1 w_19_7 +1 w_20_7
  +1 w_21_7 +1 w_22_7 +1 w_23_7 +1 w_24_7 +1 w_25_7 +1 w_26_7 +1 w_27_7 +1 w_28_7 +1 w_29_7 +1 w_30_7
  +1 w_31_7 +1 w_32_7 +1 w_33_7 +1 w_34_7 +1 w_35_7 +1 w_36_7 +1 w_37_7 +1 w_38_7 +1 w_39_7 +1 w_40_7
  +1 pec_1_7 +2 pec_2_7 +3 pec_3_7 +4 pec_4_7 = +4
 pec_onehot_7: +1 pec_0_7 +1 pec_1_7 +1 pec_2_7 +1 pec_3_7 +1 pec_4_7 = +1
 batch_size_8: +1 w_1_8 +1 w_2_8 +1 w_3_8 +1 w_4_8 +1 w_5_8 +1 w_6_8 +1 w_7_8 +1 w_8_8 +1 w_9_8 +1 w_10_8
  +1 w_11_8 +1 w_12_8 +1 w_13_8 +1 w_14_8 +1 w_15_8 +1 w_16_8 +1 w_17_8 +1 w_18_8 +1 w_19_8 +1 w_20_8
  +1 w_21_8 +1 w_22_8 +1 w_23_8 +1 w_24_8 +1 w_25_8 +1 w_26_8 +1 w_27_8 +1 w_28_8 +1 w_29_8 +1 w_30_8
  +1 w_31_8 +1 w_32_8 +1 w_33_8 +1 w_34_8 +1 w_35_8 +1 w_36_8 +1 w_37_8 +1 w_38_8 +1 w_39_8 +1 w_40_8
  +1 pec_1_8 +2 pec_2_8 +3 pec_3_8 +4 pec_4_8 = +4
 pec_onehot_8: +1 pec_0_8 +1 pec_1_8 +1 pec_2_8 +1 pec_3_8 +1 pec_4_8 = +1
 batch_size_9: +1 w_1_9 +1 w_2_9 +1 w_3_9 +1 w_4_9 +1 w_5_9 +1 w_6_9 +1 w_7_9 +1 w_8_9 +1 w_9_9 +1 w_10_9
  +1 w_11_9 +1 w_12_9 +1 w_13_9 +1 w_14_9 +1 w_15_9 +1 w_16_9 +1 w_17_9 +1 w_18_9 +1 w_19_9 +1 w_20_9
  +1 w_21_9 +1 w_22_9 +1 w_23_9 +1 w_24_9 +1 w_25_9 +1 w_26_9 +1 w_27_9 +1 w_28_9 +1 w_29_9 +1 w_30_9
  +1 w_31_9 +1 w_32_9 +1 w_33_9 +1 w_34_9 +1 w_35_9 +1 w_36_9 +1 w_37_9 +1 w_38_9 +1 w_39_9 +1 w_40_9
  +1 pec_1_9 +2 pec_2_9 +3 pec_3_9 +4 pec_4_9 = +4
 pec_onehot_9: +1 pec_0_9 +1 pec_1_9 +1 pec_2_9 +1 pec_3_9 +1 pec_4_9 = +1
 batch_size_10: +1 w_1_10 +1 w_2_10 +1 w_3_10 +1 w_4_10 +1 w_5_10 +1 w_6_10 +1 w_7_10 +1 w_8_10 +1 w_9_10
  +1 w_10_10 +1 w_11_10 +1 w_12_10 +1 w_13_10 +1 w_14_10 +1 w_15_10 +1 w_16_10 +1 w_17_10 +1 w_18_10 +1 w_19_10
  +1 w_20_10 +1 w_21_10 +1 w_22_10 +1 w_23_10 +1 w_24_10 +1 w_25_10 +1 w_26_10 +1 w_27_10 +1 w_28_10 +1 w_29_10
  +1 w_30_10 +1 w_31_10 +1 w_32_10 +1 w_33_10 +1 w_34_10 +1 w_35_10 +1 w_36_10 +1 w_37_10 +1 w_38_10 +1 w_39_10
  +1 w_40_10 +1 pec_1_10 +2 pec_2_10 +3 pec_3_10 +4 pec_4_10 = +4
 pec_onehot_10: +1 pec_0_10 +1 pec_1_10 +1 pec_2_10 +1 pec_3_10 +1 pec_4_10 = +1
 batch_mode_1: +1 y_1_1 +1 y_2_1 = +1
 batch_mode_2: +1 y_1_2 +1 y_2_2 = +1
 batch_mode_3: +1 y_1_3 +1 y_2_3 = +1
 batch_mode_4: +1 y_1_4 +1 y_2_4 = +1
 batch_mode_5: +1 y_1_5 +1 y_2_5 = +1
 batch_mode_6: +1 y_1_6 +1 y_2_6 = +1
 batch_mode_7: +1 y_1_7 +1 y_2_7 = +1
 batch_mode_8: +1 y_1_8 +1 y_2_8 = +1
 batch_mode_9: +1 y_1_9 +1 y_2_9 = +1
 batch_mode_10: +1 y_1_10 +1 y_2_10 = +1
 u_le_y_1_1_1: +1 u_1_1_1 -1 y_1_1 <= +0
 u_le_mode_1_1_1: +1 u_1_1_1 -1 mode_1_1 <= +0
 u_ge_and_1_1_1: +1 u_1_1_1 -1 y_1_1 -1 mode_1_1 >= -1
 u_le_y_1_1_2: +1 u_1_1_2 -1 y_1_2 <= +0
 u_le_mode_1_1_2: +1 u_1_1_2 -1 mode_1_1 <= +0
 u_ge_and_1_1_2: +1 u_1_1_2 -1 y_1_2 -1 mode_1_1 >= -1
 u_le_y_1_1_3: +1 u_1_1_3 -1 y_1_3 <= +0
 u_le_mode_1_1_3: +1 u_1_1_3 -1 mode_1_1 <= +0
 u_ge_and_1_1_3: +1 u_1_1_3 -1 y_1_3 -1 mode_1_1 >= -1
 u_le_y_1_1_4: +1 u_1_1_4 -1 y_1_4 <= +0
 u_le_mode_1_1_4: +1 u_1_1_4 -1 mode_1_1 <= +0
 u_ge_and_1_1_4: +1 u_1_1_4 -1 y_1_4 -1 mode_1_1 >= -1
 u_le_y_1_1_5: +1 u_1_1_5 -1 y_1_5 <= +0
 u_le_mode_1_1_5: +1 u_1_1_5 -1 mode_1_1 <= +0
 u_ge_and_1_1_5: +1 u_1_1_5 -1 y_1_5 -1 mode_1_1 >= -1
 u_le_y_1_1_6: +1 u_1_1_6 -1 y_1_6 <= +0
 u_le_mode_1_1_6: +1 u_1_1_6 -1 mode_1_1 <= +0
 u_ge_and_1_1_6: +1 u_1_1_6 -1 y_1_6 -1 mode_1_1 >= -1
 u_le_y_1_1_7: +1 u_1_1_7 -1 y_1_7 <= +0
 u_le_mode_1_1_7: +1 u_1_1_7 -1 mode_1_1 <= +0
 u_ge_and_1_1_7: +1 u_1_1_7 -1 y_1_7 -1 mode_1_1 >= -1
 u_le_y_1_1_8: +1 u_1_1_8 -1 y_1_8 <= +0
 u_le_mode_1_1_8: +1 u_1_1_8 -1 mode_1_1 <= +0
 u_ge_and_1_1_8: +1 u_1_1_8 -1 y_1_8 -1 mode_1_1 >= -1
 u_le_y_1_1_9: +1 u_1_1_9 -1 y_1_9 <= +0
 u_le_mode_1_1_9: +1 u_1_1_9 -1 mode_1_1 <= +0
 u_ge_and_1_1_9: +1 u_1_1_9 -1 y_1_9 -1 mode_1_1 >= -1
 u_le_y_1_1_10: +1 u_1_1_10 -1 y_1_10 <= +0
 u_le_mode_1_1_10: +1 u_1_1_10 -1 mode_1_1 <= +0
 u_ge_and_1_1_10: +1 u_1_1_10 -1 y_1_10 -1 mode_1_1 >= -1
 u_le_y_1_2_1: +1 u_1_2_1 -1 y_1_1 <= +0
 u_le_mode_1_2_1: +1 u_1_2_1 -1 mode_1_2 <= +0
 u_ge_and_1_2_1: +1 u_1_2_1 -1 y_1_1 -1 mode_1_2 >= -1
 u_le_y_1_2_2: +1 u_1_2_2 -1 y_1_2 <= +0
 u_le_mode_1_2_2: +1 u_1_2_2 -1 mode_1_2 <= +0
 u_ge_and_1_2_2: +1 u_1_2_2 -1 y_1_2 -1 mode_1_2 >= -1
 u_le_y_1_2_3: +1 u_1_2_3 -1 y_1_3 <= +0
 u_le_mode_1_2_3: +1 u_1_2_3 -1 mode_1_2 <= +0
 u_ge_and_1_2_3: +1 u_1_2_3 -1 y_1_3 -1 mode_1_2 >= -1
 u_le_y_1_2_4: +1 u_1_2_4 -1 y_1_4 <= +0
 u_le_mode_1_2_4: +1 u_1_2_4 -1 mode_1_2 <= +0
 u_ge_and_1_2_4: +1 u_1_2_4 -1 y_1_4 -1 mode_1_2 >= -1
 u_le_y_1_2_5: +1 u_1_2_5 -1 y_1_5 <= +0
 u_le_mode_1_2_5: +1 u_1_2_5 -1 mode_1_2 <= +0
 u_ge_and_1_2_5: +1 u_1_2_5 -1 y_1_5 -1 mode_1_2 >= -1
 u_le_y_1_2_6: +1 u_1_2_6 -1 y_1_6 <= +0
 u_le_mode_1_2_6: +1 u_1_2_6 -1 mode_1_2 <= +0
 u_ge_and_1_2_6: +1 u_1_2_6 -1 y_1_6 -1 mode_1_2 >= -1
 u_le_y_1_2_7: +1 u_1_2_7 -1 y_1_7 <= +0
 u_le_mode_1_2_7: +1 u_1_2_7 -1 mode_1_2 <= +0
 u_ge_and_1_2_7: +1 u_1_2_7 -1 y_1_7 -1 mode_1_2 >= -1
 u_le_y_1_2_8: +1 u_1_2_8 -1 y_1_8 <= +0
 u_le_mode_1_2_8: +1 u_1_2_8 -1 mode_1_2 <= +0
 u_ge_and_1_2_8: +1 u_1_2_8 -1 y_1_8 -1 mode_1_2 >= -1
 u_le_y_1_2_9: +1 u_1_2_9 -1 y_1_9 <= +0
 u_le_mode_1_2_9: +1 u_1_2_9 -1 mode_1_2 <= +0
 u_ge_and_1_2_9: +1 u_1_2_9 -1 y_1_9 -1 mode_1_2 >= -1
 u_le_y_1_2_10: +1 u_1_2_10 -1 y_1_10 <= +0
 u_le_mode_1_2_10: +1 u_1_2_10 -1 mode_1_2 <= +0
 u_ge_and_1_2_10: +1 u_1_2_10 -1 y_1_10 -1 mode_1_2 >= -1
 u_le_y_1_3_1: +1 u_1_3_1 -1 y_1_1 <= +0
 u_le_mode_1_3_1: +1 u_1_3_1 -1 mode_1_3 <= +0
 u_ge_and_1_3_1: +1 u_1_3_1 -1 y_1_1 -1 mode_1_3 >= -1
 u_le_y_1_3_2: +1 u_1_3_2 -1 y_1_2 <= +0
 u_le_mode_1_3_2: +1 u_1_3_2 -1 mode_1_3 <= +0
 u_ge_and_1_3_2: +1 u_1_3_2 -1 y_1_2 -1 mode_1_3 >= -1
 u_le_y_1_3_3: +1 u_1_3_3 -1 y_1_3 <= +0
 u_le_mode_1_3_3: +1 u_1_3_3 -1 mode_1_3 <= +0
 u_ge_and_1_3_3: +1 u_1_3_3 -1 y_1_3 -1 mode_1_3 >= -1
 u_le_y_1_3_4: +1 u_1_3_4 -1 y_1_4 <= +0
 u_le_mode_1_3_4: +1 u_1_3_4 -1 mode_1_3 <= +0
 u_ge_and_1_3_4: +1 u_1_3_4 -1 y_1_4 -1 mode_1_3 >= -1
 u_le_y_1_3_5: +1 u_1_3_5 -1 y_1_5 <= +0
 u_le_mode_1_3_5: +1 u_1_3_5 -1 mode_1_3 <= +0
 u_ge_and_1_3_5: +1 u_1_3_5 -1 y_1_5 -1 mode_1_3 >= -1
 u_le_y_1_3_6: +1 u_1_3_6 -1 y_1_6 <= +0
 u_le_mode_1_3_6: +1 u_1_3_6 -1 mode_1_3 <= +0
 u_ge_and_1_3_6: +1 u_1_3_6 -1 y_1_6 -1 mode_1_3 >= -1
 u_le_y_1_3_7: +1 u_1_3_7 -1 y_1_7 <= +0
 u_le_mode_1_3_7: +1 u_1_3_7 -1 mode_1_3 <= +0
 u_ge_and_1_3_7: +1 u_1_3_7 -1 y_1_7 -1 mode_1_3 >= -1
 u_le_y_1_3_8: +1 u_1_3_8 -1 y_1_8 <= +0
 u_le_mode_1_3_8: +1 u_1_3_8 -1 mode_1_3 <= +0
 u_ge_and_1_3_8: +1 u_1_3_8 -1 y_1_8 -1 mode_1_3 >= -1
 u_le_y_1_3_9: +1 u_1_3_9 -1 y_1_9 <= +0
 u_le_mode_1_3_9: +1 u_1_3_9 -1 mode_1_3 <= +0
 u_ge_and_1_3_9: +1 u_1_3_9 -1 y_1_9 -1 mode_1_3 >= -1
 u_le_y_1_3_10: +1 u_1_3_10 -1 y_1_10 <= +0
 u_le_mode_1_3_10: +1 u_1_3_10 -1 mode_1_3 <= +0
 u_ge_and_1_3_10: +1 u_1_3_10 -1 y_1_10 -1 mode_1_3 >= -1
 u_le_y_1_4_1: +1 u_1_4_1 -1 y_1_1 <= +0
 u_le_mode_1_4_1: +1 u_1_4_1 -1 mode_1_4 <= +0
 u_ge_and_1_4_1: +1 u_1_4_1 -1 y_1_1 -1 mode_1_4 >= -1
 u_le_y_1_4_2: +1 u_1_4_2 -1 y_1_2 <= +0
 u_le_mode_1_4_2: +1 u_1_4_2 -1 mode_1_4 <= +0
 u_ge_and_1_4_2: +1 u_1_4_2 -1 y_1_2 -1 mode_1_4 >= -1
 u_le_y_1_4_3: +1 u_1_4_3 -1 y_1_3 <= +0
 u_le_mode_1_4_3: +1 u_1_4_3 -1 mode_1_4 <= +0
 u_ge_and_1_4_3: +1 u_1_4_3 -1 y_1_3 -1 mode_1_4 >= -1
 u_le_y_1_4_4: +1 u_1_4_4 -1 y_1_4 <= +0
 u_le_mode_1_4_4: +1 u_1_4_4 -1 mode_1_4 <= +0
 u_ge_and_1_4_4: +1 u_1_4_4 -1 y_1_4 -1 mode_1_4 >= -1
 u_le_y_1_4_5: +1 u_1_4_5 -1 y_1_5 <= +0
 u_le_mode_1_4_5: +1 u_1_4_5 -1 mode_1_4 <= +0
 u_ge_and_1_4_5: +1 u_1_4_5 -1 y_1_5 -1 mode_1_4 >= -1
 u_le_y_1_4_6: +1 u_1_4_6 -1 y_1_6 <= +0
 u_le_mode_1_4_6: +1 u_1_4_6 -1 mode_1_4 <= +0
 u_ge_and_1_4_6: +1 u_1_4_6 -1 y_1_6 -1 mode_1_4 >= -1
 u_le_y_1_4_7: +1 u_1_4_7 -1 y_1_7 <= +0
 u_le_mode_1_4_7: +1 u_1_4_7 -1 mode_1_4 <= +0
 u_ge_and_1_4_7: +1 u_1_4_7 -1 y_1_7 -1 mode_1_4 >= -1
 u_le_y_1_4_8: +1 u_1_4_8 -1 y_1_8 <= +0
 u_le_mode_1_4_8: +1 u_1_4_8 -1 mode_1_4 <= +0
 u_ge_and_1_4_8: +1 u_1_4_8 -1 y_1_8 -1 mode_1_4 >= -1
 u_le_y_1_4_9: +1 u_1_4_9 -1 y_1_9 <= +0
 u_le_mode_1_4_9: +1 u_1_4_9 -1 mode_1_4 <= +0
 u_ge_and_1_4_9: +1 u_1_4_9 -1 y_1_9 -1 mode_1_4 >= -1
 u_le_y_1_4_10: +1 u_1_4_10 -1 y_1_10 <= +0
 u_le_mode_1_4_10: +1 u_1_4_10 -1 mode_1_4 <= +0
 u_ge_and_1_4_10: +1 u_1_4_10 -1 y_1_10 -1 mode_1_4 >= -1
 u_le_y_1_5_1: +1 u_1_5_1 -1 y_1_1 <= +0
 u_le_mode_1_5_1: +1 u_1_5_1 -1 mode_1_5 <= +0
 u_ge_and_1_5_1: +1 u_1_5_1 -1 y_1_1 -1 mode_1_5 >= -1
 u_le_y_1_5_2: +1 u_1_5_2 -1 y_1_2 <= +0
 u_le_mode_1_5_2: +1 u_1_5_2 -1 mode_1_5 <= +0
 u_ge_and_1_5_2: +1 u_1_5_2 -1 y_1_2 -1 mode_1_5 >= -1
 u_le_y_1_5_3: +1 u_1_5_3 -1 y_1_3 <= +0
 u_le_mode_1_5_3: +1 u_1_5_3 -1 mode_1_5 <= +0
 u_ge_and_1_5_3: +1 u_1_5_3 -1 y_1_3 -1 mode_1_5 >= -1
 u_le_y_1_5_4: +1 u_1_5_4 -1 y_1_4 <= +0
 u_le_mode_1_5_4: +1 u_1_5_4 -1 mode_1_5 <= +0
 u_ge_and_1_5_4: +1 u_1_5_4 -1 y_1_4 -1 mode_1_5 >= -1
 u_le_y_1_5_5: +1 u_1_5_5 -1 y_1_5 <= +0
 u_le_mode_1_5_5: +1 u_1_5_5 -1 mode_1_5 <= +0
 u_ge_and_1_5_5: +1 u_1_5_5 -1 y_1_5 -1 mode_1_5 >= -1
 u_le_y_1_5_6: +1 u_1_5_6 -1 y_1_6 <= +0
 u_le_mode_1_5_6: +1 u_1_5_6 -1 mode_1_5 <= +0
 u_ge_and_1_5_6: +1 u_1_5_6 -1 y_1_6 -1 mode_1_5 >= -1
 u_le_y_1_5_7: +1 u_1_5_7 -1 y_1_7 <= +0
 u_le_mode_1_5_7: +1 u_1_5_7 -1 mode_1_5 <= +0
 u_ge_and_1_5_7: +1 u_1_5_7 -1 y_1_7 -1 mode_1_5 >= -1
 u_le_y_1_5_8: +1 u_1_5_8 -1 y_1_8 <= +0
 u_le_mode_1_5_8: +1 u_1_5_8 -1 mode_1_5 <= +0
 u_ge_and_1_5_8: +1 u_1_5_8 -1 y_1_8 -1 mode_1_5 >= -1
 u_le_y_1_5_9: +1 u_1_5_9 -1 y_1_9 <= +0
 u_le_mode_1_5_9: +1 u_1_5_9 -1 mode_1_5 <= +0
 u_ge_and_1_5_9: +1 u_1_5_9 -1 y_1_9 -1 mode_1_5 >= -1
 u_le_y_1_5_10: +1 u_1_5_10 -1 y_1_10 <= +0
 u_le_mode_1_5_10: +1 u_1_5_10 -1 mode_1_5 <= +0
 u_ge_and_1_5_10: +1 u_1_5_10 -1 y_1_10 -1 mode_1_5 >= -1
 u_le_y_1_6_1: +1 u_1_6_1 -1 y_1_1 <= +0
 u_le_mode_1_6_1: +1 u_1_6_1 -1 mode_1_6 <= +0
 u_ge_and_1_6_1: +1 u_1_6_1 -1 y_1_1 -1 mode_1_6 >= -1
 u_le_y_1_6_2: +1 u_1_6_2 -1 y_1_2 <= +0
 u_le_mode_1_6_2: +1 u_1_6_2 -1 mode_1_6 <= +0
 u_ge_and_1_6_2: +1 u_1_6_2 -1 y_1_2 -1 mode_1_6 >= -1
 u_le_y_1_6_3: +1 u_1_6_3 -1 y_1_3 <= +0
 u_le_mode_1_6_3: +1 u_1_6_3 -1 mode_1_6 <= +0
 u_ge_and_1_6_3: +1 u_1_6_3 -1 y_1_3 -1 mode_1_6 >= -1
 u_le_y_1_6_4: +1 u_1_6_4 -1 y_1_4 <= +0
 u_le_mode_1_6_4: +1 u_1_6_4 -1 mode_1_6 <= +0
 u_ge_and_1_6_4: +1 u_1_6_4 -1 y_1_4 -1 mode_1_6 >= -1
 u_le_y_1_6_5: +1 u_1_6_5 -1 y_1_5 <= +0
 u_le_mode_1_6_5: +1 u_1_6_5 -1 mode_1_6 <= +0
 u_ge_and_1_6_5: +1 u_1_6_5 -1 y_1_5 -1 mode_1_6 >= -1
 u_le_y_1_6_6: +1 u_1_6_6 -1 y_1_6 <= +0
 u_le_mode_1_6_6: +1 u_1_6_6 -1 mode_1_6 <= +0
 u_ge_and_1_6_6: +1 u_1_6_6 -1 y_1_6 -1 mode_1_6 >= -1
 u_le_y_1_6_7: +1 u_1_6_7 -1 y_1_7 <= +0
 u_le_mode_1_6_7: +1 u_1_6_7 -1 mode_1_6 <= +0
 u_ge_and_1_6_7: +1 u_1_6_7 -1 y_1_7 -1 mode_1_6 >= -1
 u_le_y_1_6_8: +1 u_1_6_8 -1 y_1_8 <= +0
 u_le_mode_1_6_8: +1 u_1_6_8 -1 mode_1_6 <= +0
 u_ge_and_1_6_8: +1 u_1_6_8 -1 y_1_8 -1 mode_1_6 >= -1
 u_le_y_1_6_9: +1 u_1_6_9 -1 y_1_9 <= +0
 u_le_mode_1_6_9: +1 u_1_6_9 -1 mode_1_6 <= +0
 u_ge_and_1_6_9: +1 u_1_6_9 -1 y_1_9 -1 mode_1_6 >= -1
 u_le_y_1_6_10: +1 u_1_6_10 -1 y_1_10 <= +0
 u_le_mode_1_6_10: +1 u_1_6_10 -1 mode_1_6 <= +0
 u_ge_and_1_6_10: +1 u_1_6_10 -1 y_1_10 -1 mode_1_6 >= -1
 u_le_y_1_7_1: +1 u_1_7_1 -1 y_1_1 <= +0
 u_le_mode_1_7_1: +1 u_1_7_1 -1 mode_1_7 <= +0
 u_ge_and_1_7_1: +1 u_1_7_1 -1 y_1_1 -1 mode_1_7 >= -1
 u_le_y_1_7_2: +1 u_1_7_2 -1 y_1_2 <= +0
 u_le_mode_1_7_2: +1 u_1_7_2 -1 mode_1_7 <= +0
 u_ge_and_1_7_2: +1 u_1_7_2 -1 y_1_2 -1 mode_1_7 >= -1
 u_le_y_1_7_3: +1 u_1_7_3 -1 y_1_3 <= +0
 u_le_mode_1_7_3: +1 u_1_7_3 -1 mode_1_7 <= +0
 u_ge_and_1_7_3: +1 u_1_7_3 -1 y_1_3 -1 mode_1_7 >= -1
 u_le_y_1_7_4: +1 u_1_7_4 -1 y_1_4 <= +0
 u_le_mode_1_7_4: +1 u_1_7_4 -1 mode_1_7 <= +0
 u_ge_and_1_7_4: +1 u_1_7_4 -1 y_1_4 -1 mode_1_7 >= -1
 u_le_y_1_7_5: +1 u_1_7_5 -1 y_1_5 <= +0
 u_le_mode_1_7_5: +1 u_1_7_5 -1 mode_1_7 <= +0
 u_ge_and_1_7_5: +1 u_1_7_5 -1 y_1_5 -1 mode_1_7 >= -1
 u_le_y_1_7_6: +1 u_1_7_6 -1 y_1_6 <= +0
 u_le_mode_1_7_6: +1 u_1_7_6 -1 mode_1_7 <= +0
 u_ge_and_1_7_6: +1 u_1_7_6 -1 y_1_6 -1 mode_1_7 >= -1
 u_le_y_1_7_7: +1 u_1_7_7 -1 y_1_7 <= +0
 u_le_mode_1_7_7: +1 u_1_7_7 -1 mode_1_7 <= +0
 u_ge_and_1_7_7: +1 u_1_7_7 -1 y_1_7 -1 mode_1_7 >= -1
 u_le_y_1_7_8: +1 u_1_7_8 -1 y_1_8 <= +0
 u_le_mode_1_7_8: +1 u_1_7_8 -1 mode_1_7 <= +0
 u_ge_and_1_7_8: +1 u_1_7_8 -1 y_1_8 -1 mode_1_7 >= -1
 u_le_y_1_7_9: +1 u_1_7_9 -1 y_1_9 <= +0
 u_le_mode_1_7_9: +1 u_1_7_9 -1 mode_1_7 <= +0
 u_ge_and_1_7_9: +1 u_1_7_9 -1 y_1_9 -1 mode_1_7 >= -1
 u_le_y_1_7_10: +1 u_1_7_10 -1 y_1_10 <= +0
 u_le_mode_1_7_10: +1 u_1_7_10 -1 mode_1_7 <= +0
 u_ge_and_1_7_10: +1 u_1_7_10 -1 y_1_10 -1 mode_1_7 >= -1
 u_le_y_1_8_1: +1 u_1_8_1 -1 y_1_1 <= +0
 u_le_mode_1_8_1: +1 u_1_8_1 -1 mode_1_8 <= +0
 u_ge_and_1_8_1: +1 u_1_8_1 -1 y_1_1 -1 mode_1_8 >= -1
 u_le_y_1_8_2: +1 u_1_8_2 -1 y_1_2 <= +0
 u_le_mode_1_8_2: +1 u_1_8_2 -1 mode_1_8 <= +0
 u_ge_and_1_8_2: +1 u_1_8_2 -1 y_1_2 -1 mode_1_8 >= -1
 u_le_y_1_8_3: +1 u_1_8_3 -1 y_1_3 <= +0
 u_le_mode_1_8_3: +1 u_1_8_3 -1 mode_1_8 <= +0
 u_ge_and_1_8_3: +1 u_1_8_3 -1 y_1_3 -1 mode_1_8 >= -1
 u_le_y_1_8_4: +1 u_1_8_4 -1 y_1_4 <= +0
 u_le_mode_1_8_4: +1 u_1_8_4 -1 mode_1_8 <= +0
 u_ge_and_1_8_4: +1 u_1_8_4 -1 y_1_4 -1 mode_1_8 >= -1
 u_le_y_1_8_5: +1 u_1_8_5 -1 y_1_5 <= +0
 u_le_mode_1_8_5: +1 u_1_8_5 -1 mode_1_8 <= +0
 u_ge_and_1_8_5: +1 u_1_8_5 -1 y_1_5 -1 mode_1_8 >= -1
 u_le_y_1_8_6: +1 u_1_8_6 -1 y_1_6 <= +0
 u_le_mode_1_8_6: +1 u_1_8_6 -1 mode_1_8 <= +0
 u_ge_and_1_8_6: +1 u_1_8_6 -1 y_1_6 -1 mode_1_8 >= -1
 u_le_y_1_8_7: +1 u_1_8_7 -1 y_1_7 <= +0
 u_le_mode_1_8_7: +1 u_1_8_7 -1 mode_1_8 <= +0
 u_ge_and_1_8_7: +1 u_1_8_7 -1 y_1_7 -1 mode_1_8 >= -1
 u_le_y_1_8_8: +1 u_1_8_8 -1 y_1_8 <= +0
 u_le_mode_1_8_8: +1 u_1_8_8 -1 mode_1_8 <= +0
 u_ge_and_1_8_8: +1 u_1_8_8 -1 y_1_8 -1 mode_1_8 >= -1
 u_le_y_1_8_9: +1 u_1_8_9 -1 y_1_9 <= +0
 u_le_mode_1_8_9: +1 u_1_8_9 -1 mode_1_8 <= +0
 u_ge_and_1_8_9: +1 u_1_8_9 -1 y_1_9 -1 mode_1_8 >= -1
 u_le_y_1_8_10: +1 u_1_8_10 -1 y_1_10 <= +0
 u_le_mode_1_8_10: +1 u_1_8_10 -1 mode_1_8 <= +0
 u_ge_and_1_8_10: +1 u_1_8_10 -1 y_1_10 -1 mode_1_8 >= -1
 u_le_y_1_9_1: +1 u_1_9_1 -1 y_1_1 <= +0
 u_le_mode_1_9_1: +1 u_1_9_1 -1 mode_1_9 <= +0
 u_ge_and_1_9_1: +1 u_1_9_1 -1 y_1_1 -1 mode_1_9 >= -1
 u_le_y_1_9_2: +1 u_1_9_2 -1 y_1_2 <= +0
 u_le_mode_1_9_2: +1 u_1_9_2 -1 mode_1_9 <= +0
 u_ge_and_1_9_2: +1 u_1_9_2 -1 y_1_2 -1 mode_1_9 >= -1
 u_le_y_1_9_3: +1 u_1_9_3 -1 y_1_3 <= +0
 u_le_mode_1_9_3: +1 u_1_9_3 -1 mode_1_9 <= +0
 u_ge_and_1_9_3: +1 u_1_9_3 -1 y_1_3 -1 mode_1_9 >= -1
 u_le_y_1_9_4: +1 u_1_9_4 -1 y_1_4 <= +0
 u_le_mode_1_9_4: +1 u_1_9_4 -1 mode_1_9 <= +0
 u_ge_and_1_9_4: +1 u_1_9_4 -1 y_1_4 -1 mode_1_9 >= -1
 u_le_y_1_9_5: +1 u_1_9_5 -1 y_1_5 <= +0
 u_le_mode_1_9_5: +1 u_1_9_5 -1 mode_1_9 <= +0
 u_ge_and_1_9_5: +1 u_1_9_5 -1 y_1_5 -1 mode_1_9 >= -1
 u_le_y_1_9_6: +1 u_1_9_6 -1 y_1_6 <= +0
 u_le_mode_1_9_6: +1 u_1_9_6 -1 mode_1_9 <= +0
 u_ge_and_1_9_6: +1 u_1_9_6 -1 y_1_6 -1 mode_1_9 >= -1
 u_le_y_1_9_7: +1 u_1_9_7 -1 y_1_7 <= +0
 u_le_mode_1_9_7: +1 u_1_9_7 -1 mode_1_9 <= +0
 u_ge_and_1_9_7: +1 u_1_9_7 -1 y_1_7 -1 mode_1_9 >= -1
 u_le_y_1_9_8: +1 u_1_9_8 -1 y_1_8 <= +0
 u_le_mode_1_9_8: +1 u_1_9_8 -1 mode_1_9 <= +0
 u_ge_and_1_9_8: +1 u_1_9_8 -1 y_1_8 -1 mode_1_9 >= -1
 u_le_y_1_9_9: +1 u_1_9_9 -1 y_1_9 <= +0
 u_le_mode_1_9_9: +1 u_1_9_9 -1 mode_1_9 <= +0
 u_ge_and_1_9_9: +1 u_1_9_9 -1 y_1_9 -1 mode_1_9 >= -1
 u_le_y_1_9_10: +1 u_1_9_10 -1 y_1_10 <= +0
 u_le_mode_1_9_10: +1 u_1_9_10 -1 mode_1_9 <= +0
 u_ge_and_1_9_10: +1 u_1_9_10 -1 y_1_10 -1 mode_1_9 >= -1
 u_le_y_1_10_1: +1 u_1_10_1 -1 y_1_1 <= +0
 u_le_mode_1_10_1: +1 u_1_10_1 -1 mode_1_10 <= +0
 u_ge_and_1_10_1: +1 u_1_10_1 -1 y_1_1 -1 mode_1_10 >= -1
 u_le_y_1_10_2: +1 u_1_10_2 -1 y_1_2 <= +0
 u_le_mode_1_10_2: +1 u_1_10_2 -1 mode_1_10 <= +0
 u_ge_and_1_10_2: +1 u_1_10_2 -1 y_1_2 -1 mode_1_10 >= -1
 u_le_y_1_10_3: +1 u_1_10_3 -1 y_1_3 <= +0
 u_le_mode_1_10_3: +1 u_1_10_3 -1 mode_1_10 <= +0
 u_ge_and_1_10_3: +1 u_1_10_3 -1 y_1_3 -1 mode_1_10 >= -1
 u_le_y_1_10_4: +1 u_1_10_4 -1 y_1_4 <= +0
 u_le_mode_1_10_4: +1 u_1_10_4 -1 mode_1_10 <= +0
 u_ge_and_1_10_4: +1 u_1_10_4 -1 y_1_4 -1 mode_1_10 >= -1
 u_le_y_1_10_5: +1 u_1_10_5 -1 y_1_5 <= +0
 u_le_mode_1_10_5: +1 u_1_10_5 -1 mode_1_10 <= +0
 u_ge_and_1_10_5: +1 u_1_10_5 -1 y_1_5 -1 mode_1_10 >= -1
 u_le_y_1_10_6: +1 u_1_10_6 -1 y_1_6 <= +0
 u_le_mode_1_10_6: +1 u_1_10_6 -1 mode_1_10 <= +0
 u_ge_and_1_10_6: +1 u_1_10_6 -1 y_1_6 -1 mode_1_10 >= -1
 u_le_y_1_10_7: +1 u_1_10_7 -1 y_1_7 <= +0
 u_le_mode_1_10_7: +1 u_1_10_7 -1 mode_1_10 <= +0
 u_ge_and_1_10_7: +1 u_1_10_7 -1 y_1_7 -1 mode_1_10 >= -1
 u_le_y_1_10_8: +1 u_1_10_8 -1 y_1_8 <= +0
 u_le_mode_1_10_8: +1 u_1_10_8 -1 mode_1_10 <= +0
 u_ge_and_1_10_8: +1 u_1_10_8 -1 y_1_8 -1 mode_1_10 >= -1
 u_le_y_1_10_9: +1 u_1_10_9 -1 y_1_9 <= +0
 u_le_mode_1_10_9: +1 u_1_10_9 -1 mode_1_10 <= +0
 u_ge_and_1_10_9: +1 u_1_10_9 -1 y_1_9 -1 mode_1_10 >= -1
 u_le_y_1_10_10: +1 u_1_10_10 -1 y_1_10 <= +0
 u_le_mode_1_10_10: +1 u_1_10_10 -1 mode_1_10 <= +0
 u_ge_and_1_10_10: +1 u_1_10_10 -1 y_1_10 -1 mode_1_10 >= -1
 u_le_y_1_11_1: +1 u_1_11_1 -1 y_1_1 <= +0
 u_le_mode_1_11_1: +1 u_1_11_1 -1 mode_1_11 <= +0
 u_ge_and_1_11_1: +1 u_1_11_1 -1 y_1_1 -1 mode_1_11 >= -1
 u_le_y_1_11_2: +1 u_1_11_2 -1 y_1_2 <= +0
 u_le_mode_1_11_2: +1 u_1_11_2 -1 mode_1_11 <= +0
 u_ge_and_1_11_2: +1 u_1_11_2 -1 y_1_2 -1 mode_1_11 >= -1
 u_le_y_1_11_3: +1 u_1_11_3 -1 y_1_3 <= +0
 u_le_mode_1_11_3: +1 u_1_11_3 -1 mode_1_11 <= +0
 u_ge_and_1_11_3: +1 u_1_11_3 -1 y_1_3 -1 mode_1_11 >= -1
 u_le_y_1_11_4: +1 u_1_11_4 -1 y_1_4 <= +0
 u_le_mode_1_11_4: +1 u_1_11_4 -1 mode_1_11 <= +0
 u_ge_and_1_11_4: +1 u_1_11_4 -1 y_1_4 -1 mode_1_11 >= -1
 u_le_y_1_11_5: +1 u_1_11_5 -1 y_1_5 <= +0
 u_le_mode_1_11_5: +1 u_1_11_5 -1 mode_1_11 <= +0
 u_ge_and_1_11_5: +1 u_1_11_5 -1 y_1_5 -1 mode_1_11 >= -1
 u_le_y_1_11_6: +1 u_1_11_6 -1 y_1_6 <= +0
 u_le_mode_1_11_6: +1 u_1_11_6 -1 mode_1_11 <= +0
 u_ge_and_1_11_6: +1 u_1_11_6 -1 y_1_6 -1 mode_1_11 >= -1
 u_le_y_1_11_7: +1 u_1_11_7 -1 y_1_7 <= +0
 u_le_mode_1_11_7: +1 u_1_11_7 -1 mode_1_11 <= +0
 u_ge_and_1_11_7: +1 u_1_11_7 -1 y_1_7 -1 mode_1_11 >= -1
 u_le_y_1_11_8: +1 u_1_11_8 -1 y_1_8 <= +0
 u_le_mode_1_11_8: +1 u_1_11_8 -1 mode_1_11 <= +0
 u_ge_and_1_11_8: +1 u_1_11_8 -1 y_1_8 -1 mode_1_11 >= -1
 u_le_y_1_11_9: +1 u_1_11_9 -1 y_1_9 <= +0
 u_le_mode_1_11_9: +1 u_1_11_9 -1 mode_1_11 <= +0
 u_ge_and_1_11_9: +1 u_1_11_9 -1 y_1_9 -1 mode_1_11 >= -1
 u_le_y_1_11_10: +1 u_1_11_10 -1 y_1_10 <= +0
 u_le_mode_1_11_10: +1 u_1_11_10 -1 mode_1_11 <= +0
 u_ge_and_1_11_10: +1 u_1_11_10 -1 y_1_10 -1 mode_1_11 >= -1
 u_le_y_1_12_1: +1 u_1_12_1 -1 y_1_1 <= +0
 u_le_mode_1_12_1: +1 u_1_12_1 -1 mode_1_12 <= +0
 u_ge_and_1_12_1: +1 u_1_12_1 -1 y_1_1 -1 mode_1_12 >= -1
 u_le_y_1_12_2: +1 u_1_12_2 -1 y_1_2 <= +0
 u_le_mode_1_12_2: +1 u_1_12_2 -1 mode_1_12 <= +0
 u_ge_and_1_12_2: +1 u_1_12_2 -1 y_1_2 -1 mode_1_12 >= -1
 u_le_y_1_12_3: +1 u_1_12_3 -1 y_1_3 <= +0
 u_le_mode_1_12_3: +1 u_1_12_3 -1 mode_1_12 <= +0
 u_ge_and_1_12_3: +1 u_1_12_3 -1 y_1_3 -1 mode_1_12 >= -1
 u_le_y_1_12_4: +1 u_1_12_4 -1 y_1_4 <= +0
 u_le_mode_1_12_4: +1 u_1_12_4 -1 mode_1_12 <= +0
 u_ge_and_1_12_4: +1 u_1_12_4 -1 y_1_4 -1 mode_1_12 >= -1
 u_le_y_1_12_5: +1 u_1_12_5 -1 y_1_5 <= +0
 u_le_mode_1_12_5: +1 u_1_12_5 -1 mode_1_12 <= +0
 u_ge_and_1_12_5: +1 u_1_12_5 -1 y_1_5 -1 mode_1_12 >= -1
 u_le_y_1_12_6: +1 u_1_12_6 -1 y_1_6 <= +0
 u_le_mode_1_12_6: +1 u_1_12_6 -1 mode_1_12 <= +0
 u_ge_and_1_12_6: +1 u_1_12_6 -1 y_1_6 -1 mode_1_12 >= -1
 u_le_y_1_12_7: +1 u_1_12_7 -1 y_1_7 <= +0
 u_le_mode_1_12_7: +1 u_1_12_7 -1 mode_1_12 <= +0
 u_ge_and_1_12_7: +1 u_1_12_7 -1 y_1_7 -1 mode_1_12 >= -1
 u_le_y_1_12_8: +1 u_1_12_8 -1 y_1_8 <= +0
 u_le_mode_1_12_8: +1 u_1_12_8 -1 mode_1_12 <= +0
 u_ge_and_1_12_8: +1 u_1_12_8 -1 y_1_8 -1 mode_1_12 >= -1
 u_le_y_1_12_9: +1 u_1_12_9 -1 y_1_9 <= +0
 u_le_mode_1_12_9: +1 u_1_12_9 -1 mode_1_12 <= +0
 u_ge_and_1_12_9: +1 u_1_12_9 -1 y_1_9 -1 mode_1_12 >= -1
 u_le_y_1_12_10: +1 u_1_12_10 -1 y_1_10 <= +0
 u_le_mode_1_12_10: +1 u_1_12_10 -1 mode_1_12 <= +0
 u_ge_and_1_12_10: +1 u_1_12_10 -1 y_1_10 -1 mode_1_12 >= -1
 u_le_y_1_13_1: +1 u_1_13_1 -1 y_1_1 <= +0
 u_le_mode_1_13_1: +1 u_1_13_1 -1 mode_1_13 <= +0
 u_ge_and_1_13_1: +1 u_1_13_1 -1 y_1_1 -1 mode_1_13 >= -1
 u_le_y_1_13_2: +1 u_1_13_2 -1 y_1_2 <= +0
 u_le_mode_1_13_2: +1 u_1_13_2 -1 mode_1_13 <= +0
 u_ge_and_1_13_2: +1 u_1_13_2 -1 y_1_2 -1 mode_1_13 >= -1
 u_le_y_1_13_3: +1 u_1_13_3 -1 y_1_3 <= +0
 u_le_mode_1_13_3: +1 u_1_13_3 -1 mode_1_13 <= +0
 u_ge_and_1_13_3: +1 u_1_13_3 -1 y_1_3 -1 mode_1_13 >= -1
 u_le_y_1_13_4: +1 u_1_13_4 -1 y_1_4 <= +0
 u_le_mode_1_13_4: +1 u_1_13_4 -1 mode_1_13 <= +0
 u_ge_and_1_13_4: +1 u_1_13_4 -1 y_1_4 -1 mode_1_13 >= -1
 u_le_y_1_13_5: +1 u_1_13_5 -1 y_1_5 <= +0
 u_le_mode_1_13_5: +1 u_1_13_5 -1 mode_1_13 <= +0
 u_ge_and_1_13_5: +1 u_1_13_5 -1 y_1_5 -1 mode_1_13 >= -1
 u_le_y_1_13_6: +1 u_1_13_6 -1 y_1_6 <= +0
 u_le_mode_1_13_6: +1 u_1_13_6 -1 mode_1_13 <= +0
 u_ge_and_1_13_6: +1 u_1_13_6 -1 y_1_6 -1 mode_1_13 >= -1
 u_le_y_1_13_7: +1 u_1_13_7 -1 y_1_7 <= +0
 u_le_mode_1_13_7: +1 u_1_13_7 -1 mode_1_13 <= +0
 u_ge_and_1_13_7: +1 u_1_13_7 -1 y_1_7 -1 mode_1_13 >= -1
 u_le_y_1_13_8: +1 u_1_13_8 -1 y_1_8 <= +0
 u_le_mode_1_13_8: +1 u_1_13_8 -1 mode_1_13 <= +0
 u_ge_and_1_13_8: +1 u_1_13_8 -1 y_1_8 -1 mode_1_13 >= -1
 u_le_y_1_13_9: +1 u_1_13_9 -1 y_1_9 <= +0
 u_le_mode_1_13_9: +1 u_1_13_9 -1 mode_1_13 <= +0
 u_ge_and_1_13_9: +1 u_1_13_9 -1 y_1_9 -1 mode_1_13 >= -1
 u_le_y_1_13_10: +1 u_1_13_10 -1 y_1_10 <= +0
 u_le_mode_1_13_10: +1 u_1_13_10 -1 mode_1_13 <= +0
 u_ge_and_1_13_10: +1 u_1_13_10 -1 y_1_10 -1 mode_1_13 >= -1
 u_le_y_1_14_1: +1 u_1_14_1 -1 y_1_1 <= +0
 u_le_mode_1_14_1: +1 u_1_14_1 -1 mode_1_14 <= +0
 u_ge_and_1_14_1: +1 u_1_14_1 -1 y_1_1 -1 mode_1_14 >= -1
 u_le_y_1_14_2: +1 u_1_14_2 -1 y_1_2 <= +0
 u_le_mode_1_14_2: +1 u_1_14_2 -1 mode_1_14 <= +0
 u_ge_and_1_14_2: +1 u_1_14_2 -1 y_1_2 -1 mode_1_14 >= -1
 u_le_y_1_14_3: +1 u_1_14_3 -1 y_1_3 <= +0
 u_le_mode_1_14_3: +1 u_1_14_3 -1 mode_1_14 <= +0
 u_ge_and_1_14_3: +1 u_1_14_3 -1 y_1_3 -1 mode_1_14 >= -1
 u_le_y_1_14_4: +1 u_1_14_4 -1 y_1_4 <= +0
 u_le_mode_1_14_4: +1 u_1_14_4 -1 mode_1_14 <= +0
 u_ge_and_1_14_4: +1 u_1_14_4 -1 y_1_4 -1 mode_1_14 >= -1
 u_le_y_1_14_5: +1 u_1_14_5 -1 y_1_5 <= +0
 u_le_mode_1_14_5: +1 u_1_14_5 -1 mode_1_14 <= +0
 u_ge_and_1_14_5: +1 u_1_14_5 -1 y_1_5 -1 mode_1_14 >= -1
 u_le_y_1_14_6: +1 u_1_14_6 -1 y_1_6 <= +0
 u_le_mode_1_14_6: +1 u_1_14_6 -1 mode_1_14 <= +0
 u_ge_and_1_14_6: +1 u_1_14_6 -1 y_1_6 -1 mode_1_14 >= -1
 u_le_y_1_14_7: +1 u_1_14_7 -1 y_1_7 <= +0
 u_le_mode_1_14_7: +1 u_1_14_7 -1 mode_1_14 <= +0
 u_ge_and_1_14_7: +1 u_1_14_7 -1 y_1_7 -1 mode_1_14 >= -1
 u_le_y_1_14_8: +1 u_1_14_8 -1 y_1_8 <= +0
 u_le_mode_1_14_8: +1 u_1_14_8 -1 mode_1_14 <= +0
 u_ge_and_1_14_8: +1 u_1_14_8 -1 y_1_8 -1 mode_1_14 >= -1
 u_le_y_1_14_9: +1 u_1_14_9 -1 y_1_9 <= +0
 u_le_mode_1_14_9: +1 u_1_14_9 -1 mode_1_14 <= +0
 u_ge_and_1_14_9: +1 u_1_14_9 -1 y_1_9 -1 mode_1_14 >= -1
 u_le_y_1_14_10: +1 u_1_14_10 -1 y_1_10 <= +0
 u_le_mode_1_14_10: +1 u_1_14_10 -1 mode_1_14 <= +0
 u_ge_and_1_14_10: +1 u_1_14_10 -1 y_1_10 -1 mode_1_14 >= -1
 u_le_y_1_15_1: +1 u_1_15_1 -1 y_1_1 <= +0
 u_le_mode_1_15_1: +1 u_1_15_1 -1 mode_1_15 <= +0
 u_ge_and_1_15_1: +1 u_1_15_1 -1 y_1_1 -1 mode_1_15 >= -1
 u_le_y_1_15_2: +1 u_1_15_2 -1 y_1_2 <= +0
 u_le_mode_1_15_2: +1 u_1_15_2 -1 mode_1_15 <= +0
 u_ge_and_1_15_2: +1 u_1_15_2 -1 y_1_2 -1 mode_1_15 >= -1
 u_le_y_1_15_3: +1 u_1_15_3 -1 y_1_3 <= +0
 u_le_mode_1_15_3: +1 u_1_15_3 -1 mode_1_15 <= +0
 u_ge_and_1_15_3: +1 u_1_15_3 -1 y_1_3 -1 mode_1_15 >= -1
 u_le_y_1_15_4: +1 u_1_15_4 -1 y_1_4 <= +0
 u_le_mode_1_15_4: +1 u_1_15_4 -1 mode_1_15 <= +0
 u_ge_and_1_15_4: +1 u_1_15_4 -1 y_1_4 -1 mode_1_15 >= -1
 u_le_y_1_15_5: +1 u_1_15_5 -1 y_1_5 <= +0
 u_le_mode_1_15_5: +1 u_1_15_5 -1 mode_1_15 <= +0
 u_ge_and_1_15_5: +1 u_1_15_5 -1 y_1_5 -1 mode_1_15 >= -1
 u_le_y_1_15_6: +1 u_1_15_6 -1 y_1_6 <= +0
 u_le_mode_1_15_6: +1 u_1_15_6 -1 mode_1_15 <= +0
 u_ge_and_1_15_6: +1 u_1_15_6 -1 y_1_6 -1 mode_1_15 >= -1
 u_le_y_1_15_7: +1 u_1_15_7 -1 y_1_7 <= +0
 u_le_mode_1_15_7: +1 u_1_15_7 -1 mode_1_15 <= +0
 u_ge_and_1_15_7: +1 u_1_15_7 -1 y_1_7 -1 mode_1_15 >= -1
 u_le_y_1_15_8: +1 u_1_15_8 -1 y_1_8 <= +0
 u_le_mode_1_15_8: +1 u_1_15_8 -1 mode_1_15 <= +0
 u_ge_and_1_15_8: +1 u_1_15_8 -1 y_1_8 -1 mode_1_15 >= -1
 u_le_y_1_15_9: +1 u_1_15_9 -1 y_1_9 <= +0
 u_le_mode_1_15_9: +1 u_1_15_9 -1 mode_1_15 <= +0
 u_ge_and_1_15_9: +1 u_1_15_9 -1 y_1_9 -1 mode_1_15 >= -1
 u_le_y_1_15_10: +1 u_1_15_10 -1 y_1_10 <= +0
 u_le_mode_1_15_10: +1 u_1_15_10 -1 mode_1_15 <= +0
 u_ge_and_1_15_10: +1 u_1_15_10 -1 y_1_10 -1 mode_1_15 >= -1
 u_le_y_1_16_1: +1 u_1_16_1 -1 y_1_1 <= +0
 u_le_mode_1_16_1: +1 u_1_16_1 -1 mode_1_16 <= +0
 u_ge_and_1_16_1: +1 u_1_16_1 -1 y_1_1 -1 mode_1_16 >= -1
 u_le_y_1_16_2: +1 u_1_16_2 -1 y_1_2 <= +0
 u_le_mode_1_16_2: +1 u_1_16_2 -1 mode_1_16 <= +0
 u_ge_and_1_16_2: +1 u_1_16_2 -1 y_1_2 -1 mode_1_16 >= -1
 u_le_y_1_16_3: +1 u_1_16_3 -1 y_1_3 <= +0
 u_le_mode_1_16_3: +1 u_1_16_3 -1 mode_1_16 <= +0
 u_ge_and_1_16_3: +1 u_1_16_3 -1 y_1_3 -1 mode_1_16 >= -1
 u_le_y_1_16_4: +1 u_1_16_4 -1 y_1_4 <= +0
 u_le_mode_1_16_4: +1 u_1_16_4 -1 mode_1_16 <= +0
 u_ge_and_1_16_4: +1 u_1_16_4 -1 y_1_4 -1 mode_1_16 >= -1
 u_le_y_1_16_5: +1 u_1_16_5 -1 y_1_5 <= +0
 u_le_mode_1_16_5: +1 u_1_16_5 -1 mode_1_16 <= +0
 u_ge_and_1_16_5: +1 u_1_16_5 -1 y_1_5 -1 mode_1_16 >= -1
 u_le_y_1_16_6: +1 u_1_16_6 -1 y_1_6 <= +0
 u_le_mode_1_16_6: +1 u_1_16_6 -1 mode_1_16 <= +0
 u_ge_and_1_16_6: +1 u_1_16_6 -1 y_1_6 -1 mode_1_16 >= -1
 u_le_y_1_16_7: +1 u_1_16_7 -1 y_1_7 <= +0
 u_le_mode_1_16_7: +1 u_1_16_7 -1 mode_1_16 <= +0
 u_ge_and_1_16_7: +1 u_1_16_7 -1 y_1_7 -1 mode_1_16 >= -1
 u_le_y_1_16_8: +1 u_1_16_8 -1 y_1_8 <= +0
 u_le_mode_1_16_8: +1 u_1_16_8 -1 mode_1_16 <= +0
 u_ge_and_1_16_8: +1 u_1_16_8 -1 y_1_8 -1 mode_1_16 >= -1
 u_le_y_1_16_9: +1 u_1_16_9 -1 y_1_9 <= +0
 u_le_mode_1_16_9: +1 u_1_16_9 -1 mode_1_16 <= +0
 u_ge_and_1_16_9: +1 u_1_16_9 -1 y_1_9 -1 mode_1_16 >= -1
 u_le_y_1_16_10: +1 u_1_16_10 -1 y_1_10 <= +0
 u_le_mode_1_16_10: +1 u_1_16_10 -1 mode_1_16 <= +0
 u_ge_and_1_16_10: +1 u_1_16_10 -1 y_1_10 -1 mode_1_16 >= -1
 u_le_y_1_17_1: +1 u_1_17_1 -1 y_1_1 <= +0
 u_le_mode_1_17_1: +1 u_1_17_1 -1 mode_1_17 <= +0
 u_ge_and_1_17_1: +1 u_1_17_1 -1 y_1_1 -1 mode_1_17 >= -1
 u_le_y_1_17_2: +1 u_1_17_2 -1 y_1_2 <= +0
 u_le_mode_1_17_2: +1 u_1_17_2 -1 mode_1_17 <= +0
 u_ge_and_1_17_2: +1 u_1_17_2 -1 y_1_2 -1 mode_1_17 >= -1
 u_le_y_1_17_3: +1 u_1_17_3 -1 y_1_3 <= +0
 u_le_mode_1_17_3: +1 u_1_17_3 -1 mode_1_17 <= +0
 u_ge_and_1_17_3: +1 u_1_17_3 -1 y_1_3 -1 mode_1_17 >= -1
 u_le_y_1_17_4: +1 u_1_17_4 -1 y_1_4 <= +0
 u_le_mode_1_17_4: +1 u_1_17_4 -1 mode_1_17 <= +0
 u_ge_and_1_17_4: +1 u_1_17_4 -1 y_1_4 -1 mode_1_17 >= -1
 u_le_y_1_17_5: +1 u_1_17_5 -1 y_1_5 <= +0
 u_le_mode_1_17_5: +1 u_1_17_5 -1 mode_1_17 <= +0
 u_ge_and_1_17_5: +1 u_1_17_5 -1 y_1_5 -1 mode_1_17 >= -1
 u_le_y_1_17_6: +1 u_1_17_6 -1 y_1_6 <= +0
 u_le_mode_1_17_6: +1 u_1_17_6 -1 mode_1_17 <= +0
 u_ge_and_1_17_6: +1 u_1_17_6 -1 y_1_6 -1 mode_1_17 >= -1
 u_le_y_1_17_7: +1 u_1_17_7 -1 y_1_7 <= +0
 u_le_mode_1_17_7: +1 u_1_17_7 -1 mode_1_17 <= +0
 u_ge_and_1_17_7: +1 u_1_17_7 -1 y_1_7 -1 mode_1_17 >= -1
 u_le_y_1_17_8: +1 u_1_17_8 -1 y_1_8 <= +0
 u_le_mode_1_17_8: +1 u_1_17_8 -1 mode_1_17 <= +0
 u_ge_and_1_17_8: +1 u_1_17_8 -1 y_1_8 -1 mode_1_17 >= -1
 u_le_y_1_17_9: +1 u_1_17_9 -1 y_1_9 <= +0
 u_le_mode_1_17_9: +1 u_1_17_9 -1 mode_1_17 <= +0
 u_ge_and_1_17_9: +1 u_1_17_9 -1 y_1_9 -1 mode_1_17 >= -1
 u_le_y_1_17_10: +1 u_1_17_10 -1 y_1_10 <= +0
 u_le_mode_1_17_10: +1 u_1_17_10 -1 mode_1_17 <= +0
 u_ge_and_1_17_10: +1 u_1_17_10 -1 y_1_10 -1 mode_1_17 >= -1
 u_le_y_1_18_1: +1 u_1_18_1 -1 y_1_1 <= +0
 u_le_mode_1_18_1: +1 u_1_18_1 -1 mode_1_18 <= +0
 u_ge_and_1_18_1: +1 u_1_18_1 -1 y_1_1 -1 mode_1_18 >= -1
 u_le_y_1_18_2: +1 u_1_18_2 -1 y_1_2 <= +0
 u_le_mode_1_18_2: +1 u_1_18_2 -1 mode_1_18 <= +0
 u_ge_and_1_18_2: +1 u_1_18_2 -1 y_1_2 -1 mode_1_18 >= -1
 u_le_y_1_18_3: +1 u_1_18_3 -1 y_1_3 <= +0
 u_le_mode_1_18_3: +1 u_1_18_3 -1 mode_1_18 <= +0
 u_ge_and_1_18_3: +1 u_1_18_3 -1 y_1_3 -1 mode_1_18 >= -1
 u_le_y_1_18_4: +1 u_1_18_4 -1 y_1_4 <= +0
 u_le_mode_1_18_4: +1 u_1_18_4 -1 mode_1_18 <= +0
 u_ge_and_1_18_4: +1 u_1_18_4 -1 y_1_4 -1 mode_1_18 >= -1
 u_le_y_1_18_5: +1 u_1_18_5 -1 y_1_5 <= +0
 u_le_mode_1_18_5: +1 u_1_18_5 -1 mode_1_18 <= +0
 u_ge_and_1_18_5: +1 u_1_18_5 -1 y_1_5 -1 mode_1_18 >= -1
 u_le_y_1_18_6: +1 u_1_18_6 -1 y_1_6 <= +0
 u_le_mode_1_18_6: +1 u_1_18_6 -1 mode_1_18 <= +0
 u_ge_and_1_18_6: +1 u_1_18_6 -1 y_1_6 -1 mode_1_18 >= -1
 u_le_y_1_18_7: +1 u_1_18_7 -1 y_1_7 <= +0
 u_le_mode_1_18_7: +1 u_1_18_7 -1 mode_1_18 <= +0
 u_ge_and_1_18_7: +1 u_1_18_7 -1 y_1_7 -1 mode_1_18 >= -1
 u_le_y_1_18_8: +1 u_1_18_8 -1 y_1_8 <= +0
 u_le_mode_1_18_8: +1 u_1_18_8 -1 mode_1_18 <= +0
 u_ge_and_1_18_8: +1 u_1_18_8 -1 y_1_8 -1 mode_1_18 >= -1
 u_le_y_1_18_9: +1 u_1_18_9 -1 y_1_9 <= +0
 u_le_mode_1_18_9: +1 u_1_18_9 -1 mode_1_18 <= +0
 u_ge_and_1_18_9: +1 u_1_18_9 -1 y_1_9 -1 mode_1_18 >= -1
 u_le_y_1_18_10: +1 u_1_18_10 -1 y_1_10 <= +0
 u_le_mode_1_18_10: +1 u_1_18_10 -1 mode_1_18 <= +0
 u_ge_and_1_18_10: +1 u_1_18_10 -1 y_1_10 -1 mode_1_18 >= -1
 u_le_y_1_19_1: +1 u_1_19_1 -1 y_1_1 <= +0
 u_le_mode_1_19_1: +1 u_1_19_1 -1 mode_1_19 <= +0
 u_ge_and_1_19_1: +1 u_1_19_1 -1 y_1_1 -1 mode_1_19 >= -1
 u_le_y_1_19_2: +1 u_1_19_2 -1 y_1_2 <= +0
 u_le_mode_1_19_2: +1 u_1_19_2 -1 mode_1_19 <= +0
 u_ge_and_1_19_2: +1 u_1_19_2 -1 y_1_2 -1 mode_1_19 >= -1
 u_le_y_1_19_3: +1 u_1_19_3 -1 y_1_3 <= +0
 u_le_mode_1_19_3: +1 u_1_19_3 -1 mode_1_19 <= +0
 u_ge_and_1_19_3: +1 u_1_19_3 -1 y_1_3 -1 mode_1_19 >= -1
 u_le_y_1_19_4: +1 u_1_19_4 -1 y_1_4 <= +0
 u_le_mode_1_19_4: +1 u_1_19_4 -1 mode_1_19 <= +0
 u_ge_and_1_19_4: +1 u_1_19_4 -1 y_1_4 -1 mode_1_19 >= -1
 u_le_y_1_19_5: +1 u_1_19_5 -1 y_1_5 <= +0
 u_le_mode_1_19_5: +1 u_1_19_5 -1 mode_1_19 <= +0
 u_ge_and_1_19_5: +1 u_1_19_5 -1 y_1_5 -1 mode_1_19 >= -1
 u_le_y_1_19_6: +1 u_1_19_6 -1 y_1_6 <= +0
 u_le_mode_1_19_6: +1 u_1_19_6 -1 mode_1_19 <= +0
 u_ge_and_1_19_6: +1 u_1_19_6 -1 y_1_6 -1 mode_1_19 >= -1
 u_le_y_1_19_7: +1 u_1_19_7 -1 y_1_7 <= +0
 u_le_mode_1_19_7: +1 u_1_19_7 -1 mode_1_19 <= +0
 u_ge_and_1_19_7: +1 u_1_19_7 -1 y_1_7 -1 mode_1_19 >= -1
 u_le_y_1_19_8: +1 u_1_19_8 -1 y_1_8 <= +0
 u_le_mode_1_19_8: +1 u_1_19_8 -1 mode_1_19 <= +0
 u_ge_and_1_19_8: +1 u_1_19_8 -1 y_1_8 -1 mode_1_19 >= -1
 u_le_y_1_19_9: +1 u_1_19_9 -1 y_1_9 <= +0
 u_le_mode_1_19_9: +1 u_1_19_9 -1 mode_1_19 <= +0
 u_ge_and_1_19_9: +1 u_1_19_9 -1 y_1_9 -1 mode_1_19 >= -1
 u_le_y_1_19_10: +1 u_1_19_10 -1 y_1_10 <= +0
 u_le_mode_1_19_10: +1 u_1_19_10 -1 mode_1_19 <= +0
 u_ge_and_1_19_10: +1 u_1_19_10 -1 y_1_10 -1 mode_1_19 >= -1
 u_le_y_1_20_1: +1 u_1_20_1 -1 y_1_1 <= +0
 u_le_mode_1_20_1: +1 u_1_20_1 -1 mode_1_20 <= +0
 u_ge_and_1_20_1: +1 u_1_20_1 -1 y_1_1 -1 mode_1_20 >= -1
 u_le_y_1_20_2: +1 u_1_20_2 -1 y_1_2 <= +0
 u_le_mode_1_20_2: +1 u_1_20_2 -1 mode_1_20 <= +0
 u_ge_and_1_20_2: +1 u_1_20_2 -1 y_1_2 -1 mode_1_20 >= -1
 u_le_y_1_20_3: +1 u_1_20_3 -1 y_1_3 <= +0
 u_le_mode_1_20_3: +1 u_1_20_3 -1 mode_1_20 <= +0
 u_ge_and_1_20_3: +1 u_1_20_3 -1 y_1_3 -1 mode_1_20 >= -1
 u_le_y_1_20_4: +1 u_1_20_4 -1 y_1_4 <= +0
 u_le_mode_1_20_4: +1 u_1_20_4 -1 mode_1_20 <= +0
 u_ge_and_1_20_4: +1 u_1_20_4 -1 y_1_4 -1 mode_1_20 >= -1
 u_le_y_1_20_5: +1 u_1_20_5 -1 y_1_5 <= +0
 u_le_mode_1_20_5: +1 u_1_20_5 -1 mode_1_20 <= +0
 u_ge_and_1_20_5: +1 u_1_20_5 -1 y_1_5 -1 mode_1_20 >= -1
 u_le_y_1_20_6: +1 u_1_20_6 -1 y_1_6 <= +0
 u_le_mode_1_20_6: +1 u_1_20_6 -1 mode_1_20 <= +0
 u_ge_and_1_20_6: +1 u_1_20_6 -1 y_1_6 -1 mode_1_20 >= -1
 u_le_y_1_20_7: +1 u_1_20_7 -1 y_1_7 <= +0
 u_le_mode_1_20_7: +1 u_1_20_7 -1 mode_1_20 <= +0
 u_ge_and_1_20_7: +1 u_1_20_7 -1 y_1_7 -1 mode_1_20 >= -1
 u_le_y_1_20_8: +1 u_1_20_8 -1 y_1_8 <= +0
 u_le_mode_1_20_8: +1 u_1_20_8 -1 mode_1_20 <= +0
 u_ge_and_1_20_8: +1 u_1_20_8 -1 y_1_8 -1 mode_1_20 >= -1
 u_le_y_1_20_9: +1 u_1_20_9 -1 y_1_9 <= +0
 u_le_mode_1_20_9: +1 u_1_20_9 -1 mode_1_20 <= +0
 u_ge_and_1_20_9: +1 u_1_20_9 -1 y_1_9 -1 mode_1_20 >= -1
 u_le_y_1_20_10: +1 u_1_20_10 -1 y_1_10 <= +0
 u_le_mode_1_20_10: +1 u_1_20_10 -1 mode_1_20 <= +0
 u_ge_and_1_20_10: +1 u_1_20_10 -1 y_1_10 -1 mode_1_20 >= -1
 u_le_y_1_21_1: +1 u_1_21_1 -1 y_1_1 <= +0
 u_le_mode_1_21_1: +1 u_1_21_1 -1 mode_1_21 <= +0
 u_ge_and_1_21_1: +1 u_1_21_1 -1 y_1_1 -1 mode_1_21 >= -1
 u_le_y_1_21_2: +1 u_1_21_2 -1 y_1_2 <= +0
 u_le_mode_1_21_2: +1 u_1_21_2 -1 mode_1_21 <= +0
 u_ge_and_1_21_2: +1 u_1_21_2 -1 y_1_2 -1 mode_1_21 >= -1
 u_le_y_1_21_3: +1 u_1_21_3 -1 y_1_3 <= +0
 u_le_mode_1_21_3: +1 u_1_21_3 -1 mode_1_21 <= +0
 u_ge_and_1_21_3: +1 u_1_21_3 -1 y_1_3 -1 mode_1_21 >= -1
 u_le_y_1_21_4: +1 u_1_21_4 -1 y_1_4 <= +0
 u_le_mode_1_21_4: +1 u_1_21_4 -1 mode_1_21 <= +0
 u_ge_and_1_21_4: +1 u_1_21_4 -1 y_1_4 -1 mode_1_21 >= -1
 u_le_y_1_21_5: +1 u_1_21_5 -1 y_1_5 <= +0
 u_le_mode_1_21_5: +1 u_1_21_5 -1 mode_1_21 <= +0
 u_ge_and_1_21_5: +1 u_1_21_5 -1 y_1_5 -1 mode_1_21 >= -1
 u_le_y_1_21_6: +1 u_1_21_6 -1 y_1_6 <= +0
 u_le_mode_1_21_6: +1 u_1_21_6 -1 mode_1_21 <= +0
 u_ge_and_1_21_6: +1 u_1_21_6 -1 y_1_6 -1 mode_1_21 >= -1
 u_le_y_1_21_7: +1 u_1_21_7 -1 y_1_7 <= +0
 u_le_mode_1_21_7: +1 u_1_21_7 -1 mode_1_21 <= +0
 u_ge_and_1_21_7: +1 u_1_21_7 -1 y_1_7 -1 mode_1_21 >= -1
 u_le_y_1_21_8: +1 u_1_21_8 -1 y_1_8 <= +0
 u_le_mode_1_21_8: +1 u_1_21_8 -1 mode_1_21 <= +0
 u_ge_and_1_21_8: +1 u_1_21_8 -1 y_1_8 -1 mode_1_21 >= -1
 u_le_y_1_21_9: +1 u_1_21_9 -1 y_1_9 <= +0
 u_le_mode_1_21_9: +1 u_1_21_9 -1 mode_1_21 <= +0
 u_ge_and_1_21_9: +1 u_1_21_9 -1 y_1_9 -1 mode_1_21 >= -1
 u_le_y_1_21_10: +1 u_1_21_10 -1 y_1_10 <= +0
 u_le_mode_1_21_10: +1 u_1_21_10 -1 mode_1_21 <= +0
 u_ge_and_1_21_10: +1 u_1_21_10 -1 y_1_10 -1 mode_1_21 >= -1
 u_le_y_1_22_1: +1 u_1_22_1 -1 y_1_1 <= +0
 u_le_mode_1_22_1: +1 u_1_22_1 -1 mode_1_22 <= +0
 u_ge_and_1_22_1: +1 u_1_22_1 -1 y_1_1 -1 mode_1_22 >= -1
 u_le_y_1_22_2: +1 u_1_22_2 -1 y_1_2 <= +0
 u_le_mode_1_22_2: +1 u_1_22_2 -1 mode_1_22 <= +0
 u_ge_and_1_22_2: +1 u_1_22_2 -1 y_1_2 -1 mode_1_22 >= -1
 u_le_y_1_22_3: +1 u_1_22_3 -1 y_1_3 <= +0
 u_le_mode_1_22_3: +1 u_1_22_3 -1 mode_1_22 <= +0
 u_ge_and_1_22_3: +1 u_1_22_3 -1 y_1_3 -1 mode_1_22 >= -1
 u_le_y_1_22_4: +1 u_1_22_4 -1 y_1_4 <= +0
 u_le_mode_1_22_4: +1 u_1_22_4 -1 mode_1_22 <= +0
 u_ge_and_1_22_4: +1 u_1_22_4 -1 y_1_4 -1 mode_1_22 >= -1
 u_le_y_1_22_5: +1 u_1_22_5 -1 y_1_5 <= +0
 u_le_mode_1_22_5: +1 u_1_22_5 -1 mode_1_22 <= +0
 u_ge_and_1_22_5: +1 u_1_22_5 -1 y_1_5 -1 mode_1_22 >= -1
 u_le_y_1_22_6: +1 u_1_22_6 -1 y_1_6 <= +0
 u_le_mode_1_22_6: +1 u_1_22_6 -1 mode_1_22 <= +0
 u_ge_and_1_22_6: +1 u_1_22_6 -1 y_1_6 -1 mode_1_22 >= -1
 u_le_y_1_22_7: +1 u_1_22_7 -1 y_1_7 <= +0
 u_le_mode_1_22_7: +1 u_1_22_7 -1 mode_1_22 <= +0
 u_ge_and_1_22_7: +1 u_1_22_7 -1 y_1_7 -1 mode_1_22 >= -1
 u_le_y_1_22_8: +1 u_1_22_8 -1 y_1_8 <= +0
 u_le_mode_1_22_8: +1 u_1_22_8 -1 mode_1_22 <= +0
 u_ge_and_1_22_8: +1 u_1_22_8 -1 y_1_8 -1 mode_1_22 >= -1
 u_le_y_1_22_9: +1 u_1_22_9 -1 y_1_9 <= +0
 u_le_mode_1_22_9: +1 u_1_22_9 -1 mode_1_22 <= +0
 u_ge_and_1_22_9: +1 u_1_22_9 -1 y_1_9 -1 mode_1_22 >= -1
 u_le_y_1_22_10: +1 u_1_22_10 -1 y_1_10 <= +0
 u_le_mode_1_22_10: +1 u_1_22_10 -1 mode_1_22 <= +0
 u_ge_and_1_22_10: +1 u_1_22_10 -1 y_1_10 -1 mode_1_22 >= -1
 u_le_y_1_23_1: +1 u_1_23_1 -1 y_1_1 <= +0
 u_le_mode_1_23_1: +1 u_1_23_1 -1 mode_1_23 <= +0
 u_ge_and_1_23_1: +1 u_1_23_1 -1 y_1_1 -1 mode_1_23 >= -1
 u_le_y_1_23_2: +1 u_1_23_2 -1 y_1_2 <= +0
 u_le_mode_1_23_2: +1 u_1_23_2 -1 mode_1_23 <= +0
 u_ge_and_1_23_2: +1 u_1_23_2 -1 y_1_2 -1 mode_1_23 >= -1
 u_le_y_1_23_3: +1 u_1_23_3 -1 y_1_3 <= +0
 u_le_mode_1_23_3: +1 u_1_23_3 -1 mode_1_23 <= +0
 u_ge_and_1_23_3: +1 u_1_23_3 -1 y_1_3 -1 mode_1_23 >= -1
 u_le_y_1_23_4: +1 u_1_23_4 -1 y_1_4 <= +0
 u_le_mode_1_23_4: +1 u_1_23_4 -1 mode_1_23 <= +0
 u_ge_and_1_23_4: +1 u_1_23_4 -1 y_1_4 -1 mode_1_23 >= -1
 u_le_y_1_23_5: +1 u_1_23_5 -1 y_1_5 <= +0
 u_le_mode_1_23_5: +1 u_1_23_5 -1 mode_1_23 <= +0
 u_ge_and_1_23_5: +1 u_1_23_5 -1 y_1_5 -1 mode_1_23 >= -1
 u_le_y_1_23_6: +1 u_1_23_6 -1 y_1_6 <= +0
 u_le_mode_1_23_6: +1 u_1_23_6 -1 mode_1_23 <= +0
 u_ge_and_1_23_6: +1 u_1_23_6 -1 y_1_6 -1 mode_1_23 >= -1
 u_le_y_1_23_7: +1 u_1_23_7 -1 y_1_7 <= +0
 u_le_mode_1_23_7: +1 u_1_23_7 -1 mode_1_23 <= +0
 u_ge_and_1_23_7: +1 u_1_23_7 -1 y_1_7 -1 mode_1_23 >= -1
 u_le_y_1_23_8: +1 u_1_23_8 -1 y_1_8 <= +0
 u_le_mode_1_23_8: +1 u_1_23_8 -1 mode_1_23 <= +0
 u_ge_and_1_23_8: +1 u_1_23_8 -1 y_1_8 -1 mode_1_23 >= -1
 u_le_y_1_23_9: +1 u_1_23_9 -1 y_1_9 <= +0
 u_le_mode_1_23_9: +1 u_1_23_9 -1 mode_1_23 <= +0
 u_ge_and_1_23_9: +1 u_1_23_9 -1 y_1_9 -1 mode_1_23 >= -1
 u_le_y_1_23_10: +1 u_1_23_10 -1 y_1_10 <= +0
 u_le_mode_1_23_10: +1 u_1_23_10 -1 mode_1_23 <= +0
 u_ge_and_1_23_10: +1 u_1_23_10 -1 y_1_10 -1 mode_1_23 >= -1
 u_le_y_1_24_1: +1 u_1_24_1 -1 y_1_1 <= +0
 u_le_mode_1_24_1: +1 u_1_24_1 -1 mode_1_24 <= +0
 u_ge_and_1_24_1: +1 u_1_24_1 -1 y_1_1 -1 mode_1_24 >= -1
 u_le_y_1_24_2: +1 u_1_24_2 -1 y_1_2 <= +0
 u_le_mode_1_24_2: +1 u_1_24_2 -1 mode_1_24 <= +0
 u_ge_and_1_24_2: +1 u_1_24_2 -1 y_1_2 -1 mode_1_24 >= -1
 u_le_y_1_24_3: +1 u_1_24_3 -1 y_1_3 <= +0
 u_le_mode_1_24_3: +1 u_1_24_3 -1 mode_1_24 <= +0
 u_ge_and_1_24_3: +1 u_1_24_3 -1 y_1_3 -1 mode_1_24 >= -1
 u_le_y_1_24_4: +1 u_1_24_4 -1 y_1_4 <= +0
 u_le_mode_1_24_4: +1 u_1_24_4 -1 mode_1_24 <= +0
 u_ge_and_1_24_4: +1 u_1_24_4 -1 y_1_4 -1 mode_1_24 >= -1
 u_le_y_1_24_5: +1 u_1_24_5 -1 y_1_5 <= +0
 u_le_mode_1_24_5: +1 u_1_24_5 -1 mode_1_24 <= +0
 u_ge_and_1_24_5: +1 u_1_24_5 -1 y_1_5 -1 mode_1_24 >= -1
 u_le_y_1_24_6: +1 u_1_24_6 -1 y_1_6 <= +0
 u_le_mode_1_24_6: +1 u_1_24_6 -1 mode_1_24 <= +0
 u_ge_and_1_24_6: +1 u_1_24_6 -1 y_1_6 -1 mode_1_24 >= -1
 u_le_y_1_24_7: +1 u_1_24_7 -1 y_1_7 <= +0
 u_le_mode_1_24_7: +1 u_1_24_7 -1 mode_1_24 <= +0
 u_ge_and_1_24_7: +1 u_1_24_7 -1 y_1_7 -1 mode_1_24 >= -1
 u_le_y_1_24_8: +1 u_1_24_8 -1 y_1_8 <= +0
 u_le_mode_1_24_8: +1 u_1_24_8 -1 mode_1_24 <= +0
 u_ge_and_1_24_8: +1 u_1_24_8 -1 y_1_8 -1 mode_1_24 >= -1
 u_le_y_1_24_9: +1 u_1_24_9 -1 y_1_9 <= +0
 u_le_mode_1_24_9: +1 u_1_24_9 -1 mode_1_24 <= +0
 u_ge_and_1_24_9: +1 u_1_24_9 -1 y_1_9 -1 mode_1_24 >= -1
 u_le_y_1_24_10: +1 u_1_24_10 -1 y_1_10 <= +0
 u_le_mode_1_24_10: +1 u_1_24_10 -1 mode_1_24 <= +0
 u_ge_and_1_24_10: +1 u_1_24_10 -1 y_1_10 -1 mode_1_24 >= -1
 u_le_y_1_25_1: +1 u_1_25_1 -1 y_1_1 <= +0
 u_le_mode_1_25_1: +1 u_1_25_1 -1 mode_1_25 <= +0
 u_ge_and_1_25_1: +1 u_1_25_1 -1 y_1_1 -1 mode_1_25 >= -1
 u_le_y_1_25_2: +1 u_1_25_2 -1 y_1_2 <= +0
 u_le_mode_1_25_2: +1 u_1_25_2 -1 mode_1_25 <= +0
 u_ge_and_1_25_2: +1 u_1_25_2 -1 y_1_2 -1 mode_1_25 >= -1
 u_le_y_1_25_3: +1 u_1_25_3 -1 y_1_3 <= +0
 u_le_mode_1_25_3: +1 u_1_25_3 -1 mode_1_25 <= +0
 u_ge_and_1_25_3: +1 u_1_25_3 -1 y_1_3 -1 mode_1_25 >= -1
 u_le_y_1_25_4: +1 u_1_25_4 -1 y_1_4 <= +0
 u_le_mode_1_25_4: +1 u_1_25_4 -1 mode_1_25 <= +0
 u_ge_and_1_25_4: +1 u_1_25_4 -1 y_1_4 -1 mode_1_25 >= -1
 u_le_y_1_25_5: +1 u_1_25_5 -1 y_1_5 <= +0
 u_le_mode_1_25_5: +1 u_1_25_5 -1 mode_1_25 <= +0
 u_ge_and_1_25_5: +1 u_1_25_5 -1 y_1_5 -1 mode_1_25 >= -1
 u_le_y_1_25_6: +1 u_1_25_6 -1 y_1_6 <= +0
 u_le_mode_1_25_6: +1 u_1_25_6 -1 mode_1_25 <= +0
 u_ge_and_1_25_6: +1 u_1_25_6 -1 y_1_6 -1 mode_1_25 >= -1
 u_le_y_1_25_7: +1 u_1_25_7 -1 y_1_7 <= +0
 u_le_mode_1_25_7: +1 u_1_25_7 -1 mode_1_25 <= +0
 u_ge_and_1_25_7: +1 u_1_25_7 -1 y_1_7 -1 mode_1_25 >= -1
 u_le_y_1_25_8: +1 u_1_25_8 -1 y_1_8 <= +0
 u_le_mode_1_25_8: +1 u_1_25_8 -1 mode_1_25 <= +0
 u_ge_and_1_25_8: +1 u_1_25_8 -1 y_1_8 -1 mode_1_25 >= -1
 u_le_y_1_25_9: +1 u_1_25_9 -1 y_1_9 <= +0
 u_le_mode_1_25_9: +1 u_1_25_9 -1 mode_1_25 <= +0
 u_ge_and_1_25_9: +1 u_1_25_9 -1 y_1_9 -1 mode_1_25 >= -1
 u_le_y_1_25_10: +1 u_1_25_10 -1 y_1_10 <= +0
 u_le_mode_1_25_10: +1 u_1_25_10 -1 mode_1_25 <= +0
 u_ge_and_1_25_10: +1 u_1_25_10 -1 y_1_10 -1 mode_1_25 >= -1
 u_le_y_1_26_1: +1 u_1_26_1 -1 y_1_1 <= +0
 u_le_mode_1_26_1: +1 u_1_26_1 -1 mode_1_26 <= +0
 u_ge_and_1_26_1: +1 u_1_26_1 -1 y_1_1 -1 mode_1_26 >= -1
 u_le_y_1_26_2: +1 u_1_26_2 -1 y_1_2 <= +0
 u_le_mode_1_26_2: +1 u_1_26_2 -1 mode_1_26 <= +0
 u_ge_and_1_26_2: +1 u_1_26_2 -1 y_1_2 -1 mode_1_26 >= -1
 u_le_y_1_26_3: +1 u_1_26_3 -1 y_1_3 <= +0
 u_le_mode_1_26_3: +1 u_1_26_3 -1 mode_1_26 <= +0
 u_ge_and_1_26_3: +1 u_1_26_3 -1 y_1_3 -1 mode_1_26 >= -1
 u_le_y_1_26_4: +1 u_1_26_4 -1 y_1_4 <= +0
 u_le_mode_1_26_4: +1 u_1_26_4 -1 mode_1_26 <= +0
 u_ge_and_1_26_4: +1 u_1_26_4 -1 y_1_4 -1 mode_1_26 >= -1
 u_le_y_1_26_5: +1 u_1_26_5 -1 y_1_5 <= +0
 u_le_mode_1_26_5: +1 u_1_26_5 -1 mode_1_26 <= +0
 u_ge_and_1_26_5: +1 u_1_26_5 -1 y_1_5 -1 mode_1_26 >= -1
 u_le_y_1_26_6: +1 u_1_26_6 -1 y_1_6 <= +0
 u_le_mode_1_26_6: +1 u_1_26_6 -1 mode_1_26 <= +0
 u_ge_and_1_26_6: +1 u_1_26_6 -1 y_1_6 -1 mode_1_26 >= -1
 u_le_y_1_26_7: +1 u_1_26_7 -1 y_1_7 <= +0
 u_le_mode_1_26_7: +1 u_1_26_7 -1 mode_1_26 <= +0
 u_ge_and_1_26_7: +1 u_1_26_7 -1 y_1_7 -1 mode_1_26 >= -1
 u_le_y_1_26_8: +1 u_1_26_8 -1 y_1_8 <= +0
 u_le_mode_1_26_8: +1 u_1_26_8 -1 mode_1_26 <= +0
 u_ge_and_1_26_8: +1 u_1_26_8 -1 y_1_8 -1 mode_1_26 >= -1
 u_le_y_1_26_9: +1 u_1_26_9 -1 y_1_9 <= +0
 u_le_mode_1_26_9: +1 u_1_26_9 -1 mode_1_26 <= +0
 u_ge_and_1_26_9: +1 u_1_26_9 -1 y_1_9 -1 mode_1_26 >= -1
 u_le_y_1_26_10: +1 u_1_26_10 -1 y_1_10 <= +0
 u_le_mode_1_26_10: +1 u_1_26_10 -1 mode_1_26 <= +0
 u_ge_and_1_26_10: +1 u_1_26_10 -1 y_1_10 -1 mode_1_26 >= -1
 u_le_y_1_27_1: +1 u_1_27_1 -1 y_1_1 <= +0
 u_le_mode_1_27_1: +1 u_1_27_1 -1 mode_1_27 <= +0
 u_ge_and_1_27_1: +1 u_1_27_1 -1 y_1_1 -1 mode_1_27 >= -1
 u_le_y_1_27_2: +1 u_1_27_2 -1 y_1_2 <= +0
 u_le_mode_1_27_2: +1 u_1_27_2 -1 mode_1_27 <= +0
 u_ge_and_1_27_2: +1 u_1_27_2 -1 y_1_2 -1 mode_1_27 >= -1
 u_le_y_1_27_3: +1 u_1_27_3 -1 y_1_3 <= +0
 u_le_mode_1_27_3: +1 u_1_27_3 -1 mode_1_27 <= +0
 u_ge_and_1_27_3: +1 u_1_27_3 -1 y_1_3 -1 mode_1_27 >= -1
 u_le_y_1_27_4: +1 u_1_27_4 -1 y_1_4 <= +0
 u_le_mode_1_27_4: +1 u_1_27_4 -1 mode_1_27 <= +0
 u_ge_and_1_27_4: +1 u_1_27_4 -1 y_1_4 -1 mode_1_27 >= -1
 u_le_y_1_27_5: +1 u_1_27_5 -1 y_1_5 <= +0
 u_le_mode_1_27_5: +1 u_1_27_5 -1 mode_1_27 <= +0
 u_ge_and_1_27_5: +1 u_1_27_5 -1 y_1_5 -1 mode_1_27 >= -1
 u_le_y_1_27_6: +1 u_1_27_6 -1 y_1_6 <= +0
 u_le_mode_1_27_6: +1 u_1_27_6 -1 mode_1_27 <= +0
 u_ge_and_1_27_6: +1 u_1_27_6 -1 y_1_6 -1 mode_1_27 >= -1
 u_le_y_1_27_7: +1 u_1_27_7 -1 y_1_7 <= +0
 u_le_mode_1_27_7: +1 u_1_27_7 -1 mode_1_27 <= +0
 u_ge_and_1_27_7: +1 u_1_27_7 -1 y_1_7 -1 mode_1_27 >= -1
 u_le_y_1_27_8: +1 u_1_27_8 -1 y_1_8 <= +0
 u_le_mode_1_27_8: +1 u_1_27_8 -1 mode_1_27 <= +0
 u_ge_and_1_27_8: +1 u_1_27_8 -1 y_1_8 -1 mode_1_27 >= -1
 u_le_y_1_27_9: +1 u_1_27_9 -1 y_1_9 <= +0
 u_le_mode_1_27_9: +1 u_1_27_9 -1 mode_1_27 <= +0
 u_ge_and_1_27_9: +1 u_1_27_9 -1 y_1_9 -1 mode_1_27 >= -1
 u_le_y_1_27_10: +1 u_1_27_10 -1 y_1_10 <= +0
 u_le_mode_1_27_10: +1 u_1_27_10 -1 mode_1_27 <= +0
 u_ge_and_1_27_10: +1 u_1_27_10 -1 y_1_10 -1 mode_1_27 >= -1
 u_le_y_1_28_1: +1 u_1_28_1 -1 y_1_1 <= +0
 u_le_mode_1_28_1: +1 u_1_28_1 -1 mode_1_28 <= +0
 u_ge_and_1_28_1: +1 u_1_28_1 -1 y_1_1 -1 mode_1_28 >= -1
 u_le_y_1_28_2: +1 u_1_28_2 -1 y_1_2 <= +0
 u_le_mode_1_28_2: +1 u_1_28_2 -1 mode_1_28 <= +0
 u_ge_and_1_28_2: +1 u_1_28_2 -1 y_1_2 -1 mode_1_28 >= -1
 u_le_y_1_28_3: +1 u_1_28_3 -1 y_1_3 <= +0
 u_le_mode_1_28_3: +1 u_1_28_3 -1 mode_1_28 <= +0
 u_ge_and_1_28_3: +1 u_1_28_3 -1 y_1_3 -1 mode_1_28 >= -1
 u_le_y_1_28_4: +1 u_1_28_4 -1 y_1_4 <= +0
 u_le_mode_1_28_4: +1 u_1_28_4 -1 mode_1_28 <= +0
 u_ge_and_1_28_4: +1 u_1_28_4 -1 y_1_4 -1 mode_1_28 >= -1
 u_le_y_1_28_5: +1 u_1_28_5 -1 y_1_5 <= +0
 u_le_mode_1_28_5: +1 u_1_28_5 -1 mode_1_28 <= +0
 u_ge_and_1_28_5: +1 u_1_28_5 -1 y_1_5 -1 mode_1_28 >= -1
 u_le_y_1_28_6: +1 u_1_28_6 -1 y_1_6 <= +0
 u_le_mode_1_28_6: +1 u_1_28_6 -1 mode_1_28 <= +0
 u_ge_and_1_28_6: +1 u_1_28_6 -1 y_1_6 -1 mode_1_28 >= -1
 u_le_y_1_28_7: +1 u_1_28_7 -1 y_1_7 <= +0
 u_le_mode_1_28_7: +1 u_1_28_7 -1 mode_1_28 <= +0
 u_ge_and_1_28_7: +1 u_1_28_7 -1 y_1_7 -1 mode_1_28 >= -1
 u_le_y_1_28_8: +1 u_1_28_8 -1 y_1_8 <= +0
 u_le_mode_1_28_8: +1 u_1_28_8 -1 mode_1_28 <= +0
 u_ge_and_1_28_8: +1 u_1_28_8 -1 y_1_8 -1 mode_1_28 >= -1
 u_le_y_1_28_9: +1 u_1_28_9 -1 y_1_9 <= +0
 u_le_mode_1_28_9: +1 u_1_28_9 -1 mode_1_28 <= +0
 u_ge_and_1_28_9: +1 u_1_28_9 -1 y_1_9 -1 mode_1_28 >= -1
 u_le_y_1_28_10: +1 u_1_28_10 -1 y_1_10 <= +0
 u_le_mode_1_28_10: +1 u_1_28_10 -1 mode_1_28 <= +0
 u_ge_and_1_28_10: +1 u_1_28_10 -1 y_1_10 -1 mode_1_28 >= -1
 u_le_y_1_29_1: +1 u_1_29_1 -1 y_1_1 <= +0
 u_le_mode_1_29_1: +1 u_1_29_1 -1 mode_1_29 <= +0
 u_ge_and_1_29_1: +1 u_1_29_1 -1 y_1_1 -1 mode_1_29 >= -1
 u_le_y_1_29_2: +1 u_1_29_2 -1 y_1_2 <= +0
 u_le_mode_1_29_2: +1 u_1_29_2 -1 mode_1_29 <= +0
 u_ge_and_1_29_2: +1 u_1_29_2 -1 y_1_2 -1 mode_1_29 >= -1
 u_le_y_1_29_3: +1 u_1_29_3 -1 y_1_3 <= +0
 u_le_mode_1_29_3: +1 u_1_29_3 -1 mode_1_29 <= +0
 u_ge_and_1_29_3: +1 u_1_29_3 -1 y_1_3 -1 mode_1_29 >= -1
 u_le_y_1_29_4: +1 u_1_29_4 -1 y_1_4 <= +0
 u_le_mode_1_29_4: +1 u_1_29_4 -1 mode_1_29 <= +0
 u_ge_and_1_29_4: +1 u_1_29_4 -1 y_1_4 -1 mode_1_29 >= -1
 u_le_y_1_29_5: +1 u_1_29_5 -1 y_1_5 <= +0
 u_le_mode_1_29_5: +1 u_1_29_5 -1 mode_1_29 <= +0
 u_ge_and_1_29_5: +1 u_1_29_5 -1 y_1_5 -1 mode_1_29 >= -1
 u_le_y_1_29_6: +1 u_1_29_6 -1 y_1_6 <= +0
 u_le_mode_1_29_6: +1 u_1_29_6 -1 mode_1_29 <= +0
 u_ge_and_1_29_6: +1 u_1_29_6 -1 y_1_6 -1 mode_1_29 >= -1
 u_le_y_1_29_7: +1 u_1_29_7 -1 y_1_7 <= +0
 u_le_mode_1_29_7: +1 u_1_29_7 -1 mode_1_29 <= +0
 u_ge_and_1_29_7: +1 u_1_29_7 -1 y_1_7 -1 mode_1_29 >= -1
 u_le_y_1_29_8: +1 u_1_29_8 -1 y_1_8 <= +0
 u_le_mode_1_29_8: +1 u_1_29_8 -1 mode_1_29 <= +0
 u_ge_and_1_29_8: +1 u_1_29_8 -1 y_1_8 -1 mode_1_29 >= -1
 u_le_y_1_29_9: +1 u_1_29_9 -1 y_1_9 <= +0
 u_le_mode_1_29_9: +1 u_1_29_9 -1 mode_1_29 <= +0
 u_ge_and_1_29_9: +1 u_1_29_9 -1 y_1_9 -1 mode_1_29 >= -1
 u_le_y_1_29_10: +1 u_1_29_10 -1 y_1_10 <= +0
 u_le_mode_1_29_10: +1 u_1_29_10 -1 mode_1_29 <= +0
 u_ge_and_1_29_10: +1 u_1_29_10 -1 y_1_10 -1 mode_1_29 >= -1
 u_le_y_1_30_1: +1 u_1_30_1 -1 y_1_1 <= +0
 u_le_mode_1_30_1: +1 u_1_30_1 -1 mode_1_30 <= +0
 u_ge_and_1_30_1: +1 u_1_30_1 -1 y_1_1 -1 mode_1_30 >= -1
 u_le_y_1_30_2: +1 u_1_30_2 -1 y_1_2 <= +0
 u_le_mode_1_30_2: +1 u_1_30_2 -1 mode_1_30 <= +0
 u_ge_and_1_30_2: +1 u_1_30_2 -1 y_1_2 -1 mode_1_30 >= -1
 u_le_y_1_30_3: +1 u_1_30_3 -1 y_1_3 <= +0
 u_le_mode_1_30_3: +1 u_1_30_3 -1 mode_1_30 <= +0
 u_ge_and_1_30_3: +1 u_1_30_3 -1 y_1_3 -1 mode_1_30 >= -1
 u_le_y_1_30_4: +1 u_1_30_4 -1 y_1_4 <= +0
 u_le_mode_1_30_4: +1 u_1_30_4 -1 mode_1_30 <= +0
 u_ge_and_1_30_4: +1 u_1_30_4 -1 y_1_4 -1 mode_1_30 >= -1
 u_le_y_1_30_5: +1 u_1_30_5 -1 y_1_5 <= +0
 u_le_mode_1_30_5: +1 u_1_30_5 -1 mode_1_30 <= +0
 u_ge_and_1_30_5: +1 u_1_30_5 -1 y_1_5 -1 mode_1_30 >= -1
 u_le_y_1_30_6: +1 u_1_30_6 -1 y_1_6 <= +0
 u_le_mode_1_30_6: +1 u_1_30_6 -1 mode_1_30 <= +0
 u_ge_and_1_30_6: +1 u_1_30_6 -1 y_1_6 -1 mode_1_30 >= -1
 u_le_y_1_30_7: +1 u_1_30_7 -1 y_1_7 <= +0
 u_le_mode_1_30_7: +1 u_1_30_7 -1 mode_1_30 <= +0
 u_ge_and_1_30_7: +1 u_1_30_7 -1 y_1_7 -1 mode_1_30 >= -1
 u_le_y_1_30_8: +1 u_1_30_8 -1 y_1_8 <= +0
 u_le_mode_1_30_8: +1 u_1_30_8 -1 mode_1_30 <= +0
 u_ge_and_1_30_8: +1 u_1_30_8 -1 y_1_8 -1 mode_1_30 >= -1
 u_le_y_1_30_9: +1 u_1_30_9 -1 y_1_9 <= +0
 u_le_mode_1_30_9: +1 u_1_30_9 -1 mode_1_30 <= +0
 u_ge_and_1_30_9: +1 u_1_30_9 -1 y_1_9 -1 mode_1_30 >= -1
 u_le_y_1_30_10: +1 u_1_30_10 -1 y_1_10 <= +0
 u_le_mode_1_30_10: +1 u_1_30_10 -1 mode_1_30 <= +0
 u_ge_and_1_30_10: +1 u_1_30_10 -1 y_1_10 -1 mode_1_30 >= -1
 u_le_y_1_31_1: +1 u_1_31_1 -1 y_1_1 <= +0
 u_le_mode_1_31_1: +1 u_1_31_1 -1 mode_1_31 <= +0
 u_ge_and_1_31_1: +1 u_1_31_1 -1 y_1_1 -1 mode_1_31 >= -1
 u_le_y_1_31_2: +1 u_1_31_2 -1 y_1_2 <= +0
 u_le_mode_1_31_2: +1 u_1_31_2 -1 mode_1_31 <= +0
 u_ge_and_1_31_2: +1 u_1_31_2 -1 y_1_2 -1 mode_1_31 >= -1
 u_le_y_1_31_3: +1 u_1_31_3 -1 y_1_3 <= +0
 u_le_mode_1_31_3: +1 u_1_31_3 -1 mode_1_31 <= +0
 u_ge_and_1_31_3: +1 u_1_31_3 -1 y_1_3 -1 mode_1_31 >= -1
 u_le_y_1_31_4: +1 u_1_31_4 -1 y_1_4 <= +0
 u_le_mode_1_31_4: +1 u_1_31_4 -1 mode_1_31 <= +0
 u_ge_and_1_31_4: +1 u_1_31_4 -1 y_1_4 -1 mode_1_31 >= -1
 u_le_y_1_31_5: +1 u_1_31_5 -1 y_1_5 <= +0
 u_le_mode_1_31_5: +1 u_1_31_5 -1 mode_1_31 <= +0
 u_ge_and_1_31_5: +1 u_1_31_5 -1 y_1_5 -1 mode_1_31 >= -1
 u_le_y_1_31_6: +1 u_1_31_6 -1 y_1_6 <= +0
 u_le_mode_1_31_6: +1 u_1_31_6 -1 mode_1_31 <= +0
 u_ge_and_1_31_6: +1 u_1_31_6 -1 y_1_6 -1 mode_1_31 >= -1
 u_le_y_1_31_7: +1 u_1_31_7 -1 y_1_7 <= +0
 u_le_mode_1_31_7: +1 u_1_31_7 -1 mode_1_31 <= +0
 u_ge_and_1_31_7: +1 u_1_31_7 -1 y_1_7 -1 mode_1_31 >= -1
 u_le_y_1_31_8: +1 u_1_31_8 -1 y_1_8 <= +0
 u_le_mode_1_31_8: +1 u_1_31_8 -1 mode_1_31 <= +0
 u_ge_and_1_31_8: +1 u_1_31_8 -1 y_1_8 -1 mode_1_31 >= -1
 u_le_y_1_31_9: +1 u_1_31_9 -1 y_1_9 <= +0
 u_le_mode_1_31_9: +1 u_1_31_9 -1 mode_1_31 <= +0
 u_ge_and_1_31_9: +1 u_1_31_9 -1 y_1_9 -1 mode_1_31 >= -1
 u_le_y_1_31_10: +1 u_1_31_10 -1 y_1_10 <= +0
 u_le_mode_1_31_10: +1 u_1_31_10 -1 mode_1_31 <= +0
 u_ge_and_1_31_10: +1 u_1_31_10 -1 y_1_10 -1 mode_1_31 >= -1
 u_le_y_1_32_1: +1 u_1_32_1 -1 y_1_1 <= +0
 u_le_mode_1_32_1: +1 u_1_32_1 -1 mode_1_32 <= +0
 u_ge_and_1_32_1: +1 u_1_32_1 -1 y_1_1 -1 mode_1_32 >= -1
 u_le_y_1_32_2: +1 u_1_32_2 -1 y_1_2 <= +0
 u_le_mode_1_32_2: +1 u_1_32_2 -1 mode_1_32 <= +0
 u_ge_and_1_32_2: +1 u_1_32_2 -1 y_1_2 -1 mode_1_32 >= -1
 u_le_y_1_32_3: +1 u_1_32_3 -1 y_1_3 <= +0
 u_le_mode_1_32_3: +1 u_1_32_3 -1 mode_1_32 <= +0
 u_ge_and_1_32_3: +1 u_1_32_3 -1 y_1_3 -1 mode_1_32 >= -1
 u_le_y_1_32_4: +1 u_1_32_4 -1 y_1_4 <= +0
 u_le_mode_1_32_4: +1 u_1_32_4 -1 mode_1_32 <= +0
 u_ge_and_1_32_4: +1 u_1_32_4 -1 y_1_4 -1 mode_1_32 >= -1
 u_le_y_1_32_5: +1 u_1_32_5 -1 y_1_5 <= +0
 u_le_mode_1_32_5: +1 u_1_32_5 -1 mode_1_32 <= +0
 u_ge_and_1_32_5: +1 u_1_32_5 -1 y_1_5 -1 mode_1_32 >= -1
 u_le_y_1_32_6: +1 u_1_32_6 -1 y_1_6 <= +0
 u_le_mode_1_32_6: +1 u_1_32_6 -1 mode_1_32 <= +0
 u_ge_and_1_32_6: +1 u_1_32_6 -1 y_1_6 -1 mode_1_32 >= -1
 u_le_y_1_32_7: +1 u_1_32_7 -1 y_1_7 <= +0
 u_le_mode_1_32_7: +1 u_1_32_7 -1 mode_1_32 <= +0
 u_ge_and_1_32_7: +1 u_1_32_7 -1 y_1_7 -1 mode_1_32 >= -1
 u_le_y_1_32_8: +1 u_1_32_8 -1 y_1_8 <= +0
 u_le_mode_1_32_8: +1 u_1_32_8 -1 mode_1_32 <= +0
 u_ge_and_1_32_8: +1 u_1_32_8 -1 y_1_8 -1 mode_1_32 >= -1
 u_le_y_1_32_9: +1 u_1_32_9 -1 y_1_9 <= +0
 u_le_mode_1_32_9: +1 u_1_32_9 -1 mode_1_32 <= +0
 u_ge_and_1_32_9: +1 u_1_32_9 -1 y_1_9 -1 mode_1_32 >= -1
 u_le_y_1_32_10: +1 u_1_32_10 -1 y_1_10 <= +0
 u_le_mode_1_32_10: +1 u_1_32_10 -1 mode_1_32 <= +0
 u_ge_and_1_32_10: +1 u_1_32_10 -1 y_1_10 -1 mode_1_32 >= -1
 u_le_y_1_33_1: +1 u_1_33_1 -1 y_1_1 <= +0
 u_le_mode_1_33_1: +1 u_1_33_1 -1 mode_1_33 <= +0
 u_ge_and_1_33_1: +1 u_1_33_1 -1 y_1_1 -1 mode_1_33 >= -1
 u_le_y_1_33_2: +1 u_1_33_2 -1 y_1_2 <= +0
 u_le_mode_1_33_2: +1 u_1_33_2 -1 mode_1_33 <= +0
 u_ge_and_1_33_2: +1 u_1_33_2 -1 y_1_2 -1 mode_1_33 >= -1
 u_le_y_1_33_3: +1 u_1_33_3 -1 y_1_3 <= +0
 u_le_mode_1_33_3: +1 u_1_33_3 -1 mode_1_33 <= +0
 u_ge_and_1_33_3: +1 u_1_33_3 -1 y_1_3 -1 mode_1_33 >= -1
 u_le_y_1_33_4: +1 u_1_33_4 -1 y_1_4 <= +0
 u_le_mode_1_33_4: +1 u_1_33_4 -1 mode_1_33 <= +0
 u_ge_and_1_33_4: +1 u_1_33_4 -1 y_1_4 -1 mode_1_33 >= -1
 u_le_y_1_33_5: +1 u_1_33_5 -1 y_1_5 <= +0
 u_le_mode_1_33_5: +1 u_1_33_5 -1 mode_1_33 <= +0
 u_ge_and_1_33_5: +1 u_1_33_5 -1 y_1_5 -1 mode_1_33 >= -1
 u_le_y_1_33_6: +1 u_1_33_6 -1 y_1_6 <= +0
 u_le_mode_1_33_6: +1 u_1_33_6 -1 mode_1_33 <= +0
 u_ge_and_1_33_6: +1 u_1_33_6 -1 y_1_6 -1 mode_1_33 >= -1
 u_le_y_1_33_7: +1 u_1_33_7 -1 y_1_7 <= +0
 u_le_mode_1_33_7: +1 u_1_33_7 -1 mode_1_33 <= +0
 u_ge_and_1_33_7: +1 u_1_33_7 -1 y_1_7 -1 mode_1_33 >= -1
 u_le_y_1_33_8: +1 u_1_33_8 -1 y_1_8 <= +0
 u_le_mode_1_33_8: +1 u_1_33_8 -1 mode_1_33 <= +0
 u_ge_and_1_33_8: +1 u_1_33_8 -1 y_1_8 -1 mode_1_33 >= -1
 u_le_y_1_33_9: +1 u_1_33_9 -1 y_1_9 <= +0
 u_le_mode_1_33_9: +1 u_1_33_9 -1 mode_1_33 <= +0
 u_ge_and_1_33_9: +1 u_1_33_9 -1 y_1_9 -1 mode_1_33 >= -1
 u_le_y_1_33_10: +1 u_1_33_10 -1 y_1_10 <= +0
 u_le_mode_1_33_10: +1 u_1_33_10 -1 mode_1_33 <= +0
 u_ge_and_1_33_10: +1 u_1_33_10 -1 y_1_10 -1 mode_1_33 >= -1
 u_le_y_1_34_1: +1 u_1_34_1 -1 y_1_1 <= +0
 u_le_mode_1_34_1: +1 u_1_34_1 -1 mode_1_34 <= +0
 u_ge_and_1_34_1: +1 u_1_34_1 -1 y_1_1 -1 mode_1_34 >= -1
 u_le_y_1_34_2: +1 u_1_34_2 -1 y_1_2 <= +0
 u_le_mode_1_34_2: +1 u_1_34_2 -1 mode_1_34 <= +0
 u_ge_and_1_34_2: +1 u_1_34_2 -1 y_1_2 -1 mode_1_34 >= -1
 u_le_y_1_34_3: +1 u_1_34_3 -1 y_1_3 <= +0
 u_le_mode_1_34_3: +1 u_1_34_3 -1 mode_1_34 <= +0
 u_ge_and_1_34_3: +1 u_1_34_3 -1 y_1_3 -1 mode_1_34 >= -1
 u_le_y_1_34_4: +1 u_1_34_4 -1 y_1_4 <= +0
 u_le_mode_1_34_4: +1 u_1_34_4 -1 mode_1_34 <= +0
 u_ge_and_1_34_4: +1 u_1_34_4 -1 y_1_4 -1 mode_1_34 >= -1
 u_le_y_1_34_5: +1 u_1_34_5 -1 y_1_5 <= +0
 u_le_mode_1_34_5: +1 u_1_34_5 -1 mode_1_34 <= +0
 u_ge_and_1_34_5: +1 u_1_34_5 -1 y_1_5 -1 mode_1_34 >= -1
 u_le_y_1_34_6: +1 u_1_34_6 -1 y_1_6 <= +0
 u_le_mode_1_34_6: +1 u_1_34_6 -1 mode_1_34 <= +0
 u_ge_and_1_34_6: +1 u_1_34_6 -1 y_1_6 -1 mode_1_34 >= -1
 u_le_y_1_34_7: +1 u_1_34_7 -1 y_1_7 <= +0
 u_le_mode_1_34_7: +1 u_1_34_7 -1 mode_1_34 <= +0
 u_ge_and_1_34_7: +1 u_1_34_7 -1 y_1_7 -1 mode_1_34 >= -1
 u_le_y_1_34_8: +1 u_1_34_8 -1 y_1_8 <= +0
 u_le_mode_1_34_8: +1 u_1_34_8 -1 mode_1_34 <= +0
 u_ge_and_1_34_8: +1 u_1_34_8 -1 y_1_8 -1 mode_1_34 >= -1
 u_le_y_1_34_9: +1 u_1_34_9 -1 y_1_9 <= +0
 u_le_mode_1_34_9: +1 u_1_34_9 -1 mode_1_34 <= +0
 u_ge_and_1_34_9: +1 u_1_34_9 -1 y_1_9 -1 mode_1_34 >= -1
 u_le_y_1_34_10: +1 u_1_34_10 -1 y_1_10 <= +0
 u_le_mode_1_34_10: +1 u_1_34_10 -1 mode_1_34 <= +0
 u_ge_and_1_34_10: +1 u_1_34_10 -1 y_1_10 -1 mode_1_34 >= -1
 u_le_y_1_35_1: +1 u_1_35_1 -1 y_1_1 <= +0
 u_le_mode_1_35_1: +1 u_1_35_1 -1 mode_1_35 <= +0
 u_ge_and_1_35_1: +1 u_1_35_1 -1 y_1_1 -1 mode_1_35 >= -1
 u_le_y_1_35_2: +1 u_1_35_2 -1 y_1_2 <= +0
 u_le_mode_1_35_2: +1 u_1_35_2 -1 mode_1_35 <= +0
 u_ge_and_1_35_2: +1 u_1_35_2 -1 y_1_2 -1 mode_1_35 >= -1
 u_le_y_1_35_3: +1 u_1_35_3 -1 y_1_3 <= +0
 u_le_mode_1_35_3: +1 u_1_35_3 -1 mode_1_35 <= +0
 u_ge_and_1_35_3: +1 u_1_35_3 -1 y_1_3 -1 mode_1_35 >= -1
 u_le_y_1_35_4: +1 u_1_35_4 -1 y_1_4 <= +0
 u_le_mode_1_35_4: +1 u_1_35_4 -1 mode_1_35 <= +0
 u_ge_and_1_35_4: +1 u_1_35_4 -1 y_1_4 -1 mode_1_35 >= -1
 u_le_y_1_35_5: +1 u_1_35_5 -1 y_1_5 <= +0
 u_le_mode_1_35_5: +1 u_1_35_5 -1 mode_1_35 <= +0
 u_ge_and_1_35_5: +1 u_1_35_5 -1 y_1_5 -1 mode_1_35 >= -1
 u_le_y_1_35_6: +1 u_1_35_6 -1 y_1_6 <= +0
 u_le_mode_1_35_6: +1 u_1_35_6 -1 mode_1_35 <= +0
 u_ge_and_1_35_6: +1 u_1_35_6 -1 y_1_6 -1 mode_1_35 >= -1
 u_le_y_1_35_7: +1 u_1_35_7 -1 y_1_7 <= +0
 u_le_mode_1_35_7: +1 u_1_35_7 -1 mode_1_35 <= +0
 u_ge_and_1_35_7: +1 u_1_35_7 -1 y_1_7 -1 mode_1_35 >= -1
 u_le_y_1_35_8: +1 u_1_35_8 -1 y_1_8 <= +0
 u_le_mode_1_35_8: +1 u_1_35_8 -1 mode_1_35 <= +0
 u_ge_and_1_35_8: +1 u_1_35_8 -1 y_1_8 -1 mode_1_35 >= -1
 u_le_y_1_35_9: +1 u_1_35_9 -1 y_1_9 <= +0
 u_le_mode_1_35_9: +1 u_1_35_9 -1 mode_1_35 <= +0
 u_ge_and_1_35_9: +1 u_1_35_9 -1 y_1_9 -1 mode_1_35 >= -1
 u_le_y_1_35_10: +1 u_1_35_10 -1 y_1_10 <= +0
 u_le_mode_1_35_10: +1 u_1_35_10 -1 mode_1_35 <= +0
 u_ge_and_1_35_10: +1 u_1_35_10 -1 y_1_10 -1 mode_1_35 >= -1
 u_le_y_1_36_1: +1 u_1_36_1 -1 y_1_1 <= +0
 u_le_mode_1_36_1: +1 u_1_36_1 -1 mode_1_36 <= +0
 u_ge_and_1_36_1: +1 u_1_36_1 -1 y_1_1 -1 mode_1_36 >= -1
 u_le_y_1_36_2: +1 u_1_36_2 -1 y_1_2 <= +0
 u_le_mode_1_36_2: +1 u_1_36_2 -1 mode_1_36 <= +0
 u_ge_and_1_36_2: +1 u_1_36_2 -1 y_1_2 -1 mode_1_36 >= -1
 u_le_y_1_36_3: +1 u_1_36_3 -1 y_1_3 <= +0
 u_le_mode_1_36_3: +1 u_1_36_3 -1 mode_1_36 <= +0
 u_ge_and_1_36_3: +1 u_1_36_3 -1 y_1_3 -1 mode_1_36 >= -1
 u_le_y_1_36_4: +1 u_1_36_4 -1 y_1_4 <= +0
 u_le_mode_1_36_4: +1 u_1_36_4 -1 mode_1_36 <= +0
 u_ge_and_1_36_4: +1 u_1_36_4 -1 y_1_4 -1 mode_1_36 >= -1
 u_le_y_1_36_5: +1 u_1_36_5 -1 y_1_5 <= +0
 u_le_mode_1_36_5: +1 u_1_36_5 -1 mode_1_36 <= +0
 u_ge_and_1_36_5: +1 u_1_36_5 -1 y_1_5 -1 mode_1_36 >= -1
 u_le_y_1_36_6: +1 u_1_36_6 -1 y_1_6 <= +0
 u_le_mode_1_36_6: +1 u_1_36_6 -1 mode_1_36 <= +0
 u_ge_and_1_36_6: +1 u_1_36_6 -1 y_1_6 -1 mode_1_36 >= -1
 u_le_y_1_36_7: +1 u_1_36_7 -1 y_1_7 <= +0
 u_le_mode_1_36_7: +1 u_1_36_7 -1 mode_1_36 <= +0
 u_ge_and_1_36_7: +1 u_1_36_7 -1 y_1_7 -1 mode_1_36 >= -1
 u_le_y_1_36_8: +1 u_1_36_8 -1 y_1_8 <= +0
 u_le_mode_1_36_8: +1 u_1_36_8 -1 mode_1_36 <= +0
 u_ge_and_1_36_8: +1 u_1_36_8 -1 y_1_8 -1 mode_1_36 >= -1
 u_le_y_1_36_9: +1 u_1_36_9 -1 y_1_9 <= +0
 u_le_mode_1_36_9: +1 u_1_36_9 -1 mode_1_36 <= +0
 u_ge_and_1_36_9: +1 u_1_36_9 -1 y_1_9 -1 mode_1_36 >= -1
 u_le_y_1_36_10: +1 u_1_36_10 -1 y_1_10 <= +0
 u_le_mode_1_36_10: +1 u_1_36_10 -1 mode_1_36 <= +0
 u_ge_and_1_36_10: +1 u_1_36_10 -1 y_1_10 -1 mode_1_36 >= -1
 u_le_y_1_37_1: +1 u_1_37_1 -1 y_1_1 <= +0
 u_le_mode_1_37_1: +1 u_1_37_1 -1 mode_1_37 <= +0
 u_ge_and_1_37_1: +1 u_1_37_1 -1 y_1_1 -1 mode_1_37 >= -1
 u_le_y_1_37_2: +1 u_1_37_2 -1 y_1_2 <= +0
 u_le_mode_1_37_2: +1 u_1_37_2 -1 mode_1_37 <= +0
 u_ge_and_1_37_2: +1 u_1_37_2 -1 y_1_2 -1 mode_1_37 >= -1
 u_le_y_1_37_3: +1 u_1_37_3 -1 y_1_3 <= +0
 u_le_mode_1_37_3: +1 u_1_37_3 -1 mode_1_37 <= +0
 u_ge_and_1_37_3: +1 u_1_37_3 -1 y_1_3 -1 mode_1_37 >= -1
 u_le_y_1_37_4: +1 u_1_37_4 -1 y_1_4 <= +0
 u_le_mode_1_37_4: +1 u_1_37_4 -1 mode_1_37 <= +0
 u_ge_and_1_37_4: +1 u_1_37_4 -1 y_1_4 -1 mode_1_37 >= -1
 u_le_y_1_37_5: +1 u_1_37_5 -1 y_1_5 <= +0
 u_le_mode_1_37_5: +1 u_1_37_5 -1 mode_1_37 <= +0
 u_ge_and_1_37_5: +1 u_1_37_5 -1 y_1_5 -1 mode_1_37 >= -1
 u_le_y_1_37_6: +1 u_1_37_6 -1 y_1_6 <= +0
 u_le_mode_1_37_6: +1 u_1_37_6 -1 mode_1_37 <= +0
 u_ge_and_1_37_6: +1 u_1_37_6 -1 y_1_6 -1 mode_1_37 >= -1
 u_le_y_1_37_7: +1 u_1_37_7 -1 y_1_7 <= +0
 u_le_mode_1_37_7: +1 u_1_37_7 -1 mode_1_37 <= +0
 u_ge_and_1_37_7: +1 u_1_37_7 -1 y_1_7 -1 mode_1_37 >= -1
 u_le_y_1_37_8: +1 u_1_37_8 -1 y_1_8 <= +0
 u_le_mode_1_37_8: +1 u_1_37_8 -1 mode_1_37 <= +0
 u_ge_and_1_37_8: +1 u_1_37_8 -1 y_1_8 -1 mode_1_37 >= -1
 u_le_y_1_37_9: +1 u_1_37_9 -1 y_1_9 <= +0
 u_le_mode_1_37_9: +1 u_1_37_9 -1 mode_1_37 <= +0
 u_ge_and_1_37_9: +1 u_1_37_9 -1 y_1_9 -1 mode_1_37 >= -1
 u_le_y_1_37_10: +1 u_1_37_10 -1 y_1_10 <= +0
 u_le_mode_1_37_10: +1 u_1_37_10 -1 mode_1_37 <= +0
 u_ge_and_1_37_10: +1 u_1_37_10 -1 y_1_10 -1 mode_1_37 >= -1
 u_le_y_1_38_1: +1 u_1_38_1 -1 y_1_1 <= +0
 u_le_mode_1_38_1: +1 u_1_38_1 -1 mode_1_38 <= +0
 u_ge_and_1_38_1: +1 u_1_38_1 -1 y_1_1 -1 mode_1_38 >= -1
 u_le_y_1_38_2: +1 u_1_38_2 -1 y_1_2 <= +0
 u_le_mode_1_38_2: +1 u_1_38_2 -1 mode_1_38 <= +0
 u_ge_and_1_38_2: +1 u_1_38_2 -1 y_1_2 -1 mode_1_38 >= -1
 u_le_y_1_38_3: +1 u_1_38_3 -1 y_1_3 <= +0
 u_le_mode_1_38_3: +1 u_1_38_3 -1 mode_1_38 <= +0
 u_ge_and_1_38_3: +1 u_1_38_3 -1 y_1_3 -1 mode_1_38 >= -1
 u_le_y_1_38_4: +1 u_1_38_4 -1 y_1_4 <= +0
 u_le_mode_1_38_4: +1 u_1_38_4 -1 mode_1_38 <= +0
 u_ge_and_1_38_4: +1 u_1_38_4 -1 y_1_4 -1 mode_1_38 >= -1
 u_le_y_1_38_5: +1 u_1_38_5 -1 y_1_5 <= +0
 u_le_mode_1_38_5: +1 u_1_38_5 -1 mode_1_38 <= +0
 u_ge_and_1_38_5: +1 u_1_38_5 -1 y_1_5 -1 mode_1_38 >= -1
 u_le_y_1_38_6: +1 u_1_38_6 -1 y_1_6 <= +0
 u_le_mode_1_38_6: +1 u_1_38_6 -1 mode_1_38 <= +0
 u_ge_and_1_38_6: +1 u_1_38_6 -1 y_1_6 -1 mode_1_38 >= -1
 u_le_y_1_38_7: +1 u_1_38_7 -1 y_1_7 <= +0
 u_le_mode_1_38_7: +1 u_1_38_7 -1 mode_1_38 <= +0
 u_ge_and_1_38_7: +1 u_1_38_7 -1 y_1_7 -1 mode_1_38 >= -1
 u_le_y_1_38_8: +1 u_1_38_8 -1 y_1_8 <= +0
 u_le_mode_1_38_8: +1 u_1_38_8 -1 mode_1_38 <= +0
 u_ge_and_1_38_8: +1 u_1_38_8 -1 y_1_8 -1 mode_1_38 >= -1
 u_le_y_1_38_9: +1 u_1_38_9 -1 y_1_9 <= +0
 u_le_mode_1_38_9: +1 u_1_38_9 -1 mode_1_38 <= +0
 u_ge_and_1_38_9: +1 u_1_38_9 -1 y_1_9 -1 mode_1_38 >= -1
 u_le_y_1_38_10: +1 u_1_38_10 -1 y_1_10 <= +0
 u_le_mode_1_38_10: +1 u_1_38_10 -1 mode_1_38 <= +0
 u_ge_and_1_38_10: +1 u_1_38_10 -1 y_1_10 -1 mode_1_38 >= -1
 u_le_y_1_39_1: +1 u_1_39_1 -1 y_1_1 <= +0
 u_le_mode_1_39_1: +1 u_1_39_1 -1 mode_1_39 <= +0
 u_ge_and_1_39_1: +1 u_1_39_1 -1 y_1_1 -1 mode_1_39 >= -1
 u_le_y_1_39_2: +1 u_1_39_2 -1 y_1_2 <= +0
 u_le_mode_1_39_2: +1 u_1_39_2 -1 mode_1_39 <= +0
 u_ge_and_1_39_2: +1 u_1_39_2 -1 y_1_2 -1 mode_1_39 >= -1
 u_le_y_1_39_3: +1 u_1_39_3 -1 y_1_3 <= +0
 u_le_mode_1_39_3: +1 u_1_39_3 -1 mode_1_39 <= +0
 u_ge_and_1_39_3: +1 u_1_39_3 -1 y_1_3 -1 mode_1_39 >= -1
 u_le_y_1_39_4: +1 u_1_39_4 -1 y_1_4 <= +0
 u_le_mode_1_39_4: +1 u_1_39_4 -1 mode_1_39 <= +0
 u_ge_and_1_39_4: +1 u_1_39_4 -1 y_1_4 -1 mode_1_39 >= -1
 u_le_y_1_39_5: +1 u_1_39_5 -1 y_1_5 <= +0
 u_le_mode_1_39_5: +1 u_1_39_5 -1 mode_1_39 <= +0
 u_ge_and_1_39_5: +1 u_1_39_5 -1 y_1_5 -1 mode_1_39 >= -1
 u_le_y_1_39_6: +1 u_1_39_6 -1 y_1_6 <= +0
 u_le_mode_1_39_6: +1 u_1_39_6 -1 mode_1_39 <= +0
 u_ge_and_1_39_6: +1 u_1_39_6 -1 y_1_6 -1 mode_1_39 >= -1
 u_le_y_1_39_7: +1 u_1_39_7 -1 y_1_7 <= +0
 u_le_mode_1_39_7: +1 u_1_39_7 -1 mode_1_39 <= +0
 u_ge_and_1_39_7: +1 u_1_39_7 -1 y_1_7 -1 mode_1_39 >= -1
 u_le_y_1_39_8: +1 u_1_39_8 -1 y_1_8 <= +0
 u_le_mode_1_39_8: +1 u_1_39_8 -1 mode_1_39 <= +0
 u_ge_and_1_39_8: +1 u_1_39_8 -1 y_1_8 -1 mode_1_39 >= -1
 u_le_y_1_39_9: +1 u_1_39_9 -1 y_1_9 <= +0
 u_le_mode_1_39_9: +1 u_1_39_9 -1 mode_1_39 <= +0
 u_ge_and_1_39_9: +1 u_1_39_9 -1 y_1_9 -1 mode_1_39 >= -1
 u_le_y_1_39_10: +1 u_1_39_10 -1 y_1_10 <= +0
 u_le_mode_1_39_10: +1 u_1_39_10 -1 mode_1_39 <= +0
 u_ge_and_1_39_10: +1 u_1_39_10 -1 y_1_10 -1 mode_1_39 >= -1
 u_le_y_1_40_1: +1 u_1_40_1 -1 y_1_1 <= +0
 u_le_mode_1_40_1: +1 u_1_40_1 -1 mode_1_40 <= +0
 u_ge_and_1_40_1: +1 u_1_40_1 -1 y_1_1 -1 mode_1_40 >= -1
 u_le_y_1_40_2: +1 u_1_40_2 -1 y_1_2 <= +0
 u_le_mode_1_40_2: +1 u_1_40_2 -1 mode_1_40 <= +0
 u_ge_and_1_40_2: +1 u_1_40_2 -1 y_1_2 -1 mode_1_40 >= -1
 u_le_y_1_40_3: +1 u_1_40_3 -1 y_1_3 <= +0
 u_le_mode_1_40_3: +1 u_1_40_3 -1 mode_1_40 <= +0
 u_ge_and_1_40_3: +1 u_1_40_3 -1 y_1_3 -1 mode_1_40 >= -1
 u_le_y_1_40_4: +1 u_1_40_4 -1 y_1_4 <= +0
 u_le_mode_1_40_4: +1 u_1_40_4 -1 mode_1_40 <= +0
 u_ge_and_1_40_4: +1 u_1_40_4 -1 y_1_4 -1 mode_1_40 >= -1
 u_le_y_1_40_5: +1 u_1_40_5 -1 y_1_5 <= +0
 u_le_mode_1_40_5: +1 u_1_40_5 -1 mode_1_40 <= +0
 u_ge_and_1_40_5: +1 u_1_40_5 -1 y_1_5 -1 mode_1_40 >= -1
 u_le_y_1_40_6: +1 u_1_40_6 -1 y_1_6 <= +0
 u_le_mode_1_40_6: +1 u_1_40_6 -1 mode_1_40 <= +0
 u_ge_and_1_40_6: +1 u_1_40_6 -1 y_1_6 -1 mode_1_40 >= -1
 u_le_y_1_40_7: +1 u_1_40_7 -1 y_1_7 <= +0
 u_le_mode_1_40_7: +1 u_1_40_7 -1 mode_1_40 <= +0
 u_ge_and_1_40_7: +1 u_1_40_7 -1 y_1_7 -1 mode_1_40 >= -1
 u_le_y_1_40_8: +1 u_1_40_8 -1 y_1_8 <= +0
 u_le_mode_1_40_8: +1 u_1_40_8 -1 mode_1_40 <= +0
 u_ge_and_1_40_8: +1 u_1_40_8 -1 y_1_8 -1 mode_1_40 >= -1
 u_le_y_1_40_9: +1 u_1_40_9 -1 y_1_9 <= +0
 u_le_mode_1_40_9: +1 u_1_40_9 -1 mode_1_40 <= +0
 u_ge_and_1_40_9: +1 u_1_40_9 -1 y_1_9 -1 mode_1_40 >= -1
 u_le_y_1_40_10: +1 u_1_40_10 -1 y_1_10 <= +0
 u_le_mode_1_40_10: +1 u_1_40_10 -1 mode_1_40 <= +0
 u_ge_and_1_40_10: +1 u_1_40_10 -1 y_1_10 -1 mode_1_40 >= -1
 u_le_y_2_1_1: +1 u_2_1_1 -1 y_2_1 <= +0
 u_le_mode_2_1_1: +1 u_2_1_1 -1 mode_2_1 <= +0
 u_ge_and_2_1_1: +1 u_2_1_1 -1 y_2_1 -1 mode_2_1 >= -1
 u_le_y_2_1_2: +1 u_2_1_2 -1 y_2_2 <= +0
 u_le_mode_2_1_2: +1 u_2_1_2 -1 mode_2_1 <= +0
 u_ge_and_2_1_2: +1 u_2_1_2 -1 y_2_2 -1 mode_2_1 >= -1
 u_le_y_2_1_3: +1 u_2_1_3 -1 y_2_3 <= +0
 u_le_mode_2_1_3: +1 u_2_1_3 -1 mode_2_1 <= +0
 u_ge_and_2_1_3: +1 u_2_1_3 -1 y_2_3 -1 mode_2_1 >= -1
 u_le_y_2_1_4: +1 u_2_1_4 -1 y_2_4 <= +0
 u_le_mode_2_1_4: +1 u_2_1_4 -1 mode_2_1 <= +0
 u_ge_and_2_1_4: +1 u_2_1_4 -1 y_2_4 -1 mode_2_1 >= -1
 u_le_y_2_1_5: +1 u_2_1_5 -1 y_2_5 <= +0
 u_le_mode_2_1_5: +1 u_2_1_5 -1 mode_2_1 <= +0
 u_ge_and_2_1_5: +1 u_2_1_5 -1 y_2_5 -1 mode_2_1 >= -1
 u_le_y_2_1_6: +1 u_2_1_6 -1 y_2_6 <= +0
 u_le_mode_2_1_6: +1 u_2_1_6 -1 mode_2_1 <= +0
 u_ge_and_2_1_6: +1 u_2_1_6 -1 y_2_6 -1 mode_2_1 >= -1
 u_le_y_2_1_7: +1 u_2_1_7 -1 y_2_7 <= +0
 u_le_mode_2_1_7: +1 u_2_1_7 -1 mode_2_1 <= +0
 u_ge_and_2_1_7: +1 u_2_1_7 -1 y_2_7 -1 mode_2_1 >= -1
 u_le_y_2_1_8: +1 u_2_1_8 -1 y_2_8 <= +0
 u_le_mode_2_1_8: +1 u_2_1_8 -1 mode_2_1 <= +0
 u_ge_and_2_1_8: +1 u_2_1_8 -1 y_2_8 -1 mode_2_1 >= -1
 u_le_y_2_1_9: +1 u_2_1_9 -1 y_2_9 <= +0
 u_le_mode_2_1_9: +1 u_2_1_9 -1 mode_2_1 <= +0
 u_ge_and_2_1_9: +1 u_2_1_9 -1 y_2_9 -1 mode_2_1 >= -1
 u_le_y_2_1_10: +1 u_2_1_10 -1 y_2_10 <= +0
 u_le_mode_2_1_10: +1 u_2_1_10 -1 mode_2_1 <= +0
 u_ge_and_2_1_10: +1 u_2_1_10 -1 y_2_10 -1 mode_2_1 >= -1
 u_le_y_2_2_1: +1 u_2_2_1 -1 y_2_1 <= +0
 u_le_mode_2_2_1: +1 u_2_2_1 -1 mode_2_2 <= +0
 u_ge_and_2_2_1: +1 u_2_2_1 -1 y_2_1 -1 mode_2_2 >= -1
 u_le_y_2_2_2: +1 u_2_2_2 -1 y_2_2 <= +0
 u_le_mode_2_2_2: +1 u_2_2_2 -1 mode_2_2 <= +0
 u_ge_and_2_2_2: +1 u_2_2_2 -1 y_2_2 -1 mode_2_2 >= -1
 u_le_y_2_2_3: +1 u_2_2_3 -1 y_2_3 <= +0
 u_le_mode_2_2_3: +1 u_2_2_3 -1 mode_2_2 <= +0
 u_ge_and_2_2_3: +1 u_2_2_3 -1 y_2_3 -1 mode_2_2 >= -1
 u_le_y_2_2_4: +1 u_2_2_4 -1 y_2_4 <= +0
 u_le_mode_2_2_4: +1 u_2_2_4 -1 mode_2_2 <= +0
 u_ge_and_2_2_4: +1 u_2_2_4 -1 y_2_4 -1 mode_2_2 >= -1
 u_le_y_2_2_5: +1 u_2_2_5 -1 y_2_5 <= +0
 u_le_mode_2_2_5: +1 u_2_2_5 -1 mode_2_2 <= +0
 u_ge_and_2_2_5: +1 u_2_2_5 -1 y_2_5 -1 mode_2_2 >= -1
 u_le_y_2_2_6: +1 u_2_2_6 -1 y_2_6 <= +0
 u_le_mode_2_2_6: +1 u_2_2_6 -1 mode_2_2 <= +0
 u_ge_and_2_2_6: +1 u_2_2_6 -1 y_2_6 -1 mode_2_2 >= -1
 u_le_y_2_2_7: +1 u_2_2_7 -1 y_2_7 <= +0
 u_le_mode_2_2_7: +1 u_2_2_7 -1 mode_2_2 <= +0
 u_ge_and_2_2_7: +1 u_2_2_7 -1 y_2_7 -1 mode_2_2 >= -1
 u_le_y_2_2_8: +1 u_2_2_8 -1 y_2_8 <= +0
 u_le_mode_2_2_8: +1 u_2_2_8 -1 mode_2_2 <= +0
 u_ge_and_2_2_8: +1 u_2_2_8 -1 y_2_8 -1 mode_2_2 >= -1
 u_le_y_2_2_9: +1 u_2_2_9 -1 y_2_9 <= +0
 u_le_mode_2_2_9: +1 u_2_2_9 -1 mode_2_2 <= +0
 u_ge_and_2_2_9: +1 u_2_2_9 -1 y_2_9 -1 mode_2_2 >= -1
 u_le_y_2_2_10: +1 u_2_2_10 -1 y_2_10 <= +0
 u_le_mode_2_2_10: +1 u_2_2_10 -1 mode_2_2 <= +0
 u_ge_and_2_2_10: +1 u_2_2_10 -1 y_2_10 -1 mode_2_2 >= -1
 u_le_y_2_3_1: +1 u_2_3_1 -1 y_2_1 <= +0
 u_le_mode_2_3_1: +1 u_2_3_1 -1 mode_2_3 <= +0
 u_ge_and_2_3_1: +1 u_2_3_1 -1 y_2_1 -1 mode_2_3 >= -1
 u_le_y_2_3_2: +1 u_2_3_2 -1 y_2_2 <= +0
 u_le_mode_2_3_2: +1 u_2_3_2 -1 mode_2_3 <= +0
 u_ge_and_2_3_2: +1 u_2_3_2 -1 y_2_2 -1 mode_2_3 >= -1
 u_le_y_2_3_3: +1 u_2_3_3 -1 y_2_3 <= +0
 u_le_mode_2_3_3: +1 u_2_3_3 -1 mode_2_3 <= +0
 u_ge_and_2_3_3: +1 u_2_3_3 -1 y_2_3 -1 mode_2_3 >= -1
 u_le_y_2_3_4: +1 u_2_3_4 -1 y_2_4 <= +0
 u_le_mode_2_3_4: +1 u_2_3_4 -1 mode_2_3 <= +0
 u_ge_and_2_3_4: +1 u_2_3_4 -1 y_2_4 -1 mode_2_3 >= -1
 u_le_y_2_3_5: +1 u_2_3_5 -1 y_2_5 <= +0
 u_le_mode_2_3_5: +1 u_2_3_5 -1 mode_2_3 <= +0
 u_ge_and_2_3_5: +1 u_2_3_5 -1 y_2_5 -1 mode_2_3 >= -1
 u_le_y_2_3_6: +1 u_2_3_6 -1 y_2_6 <= +0
 u_le_mode_2_3_6: +1 u_2_3_6 -1 mode_2_3 <= +0
 u_ge_and_2_3_6: +1 u_2_3_6 -1 y_2_6 -1 mode_2_3 >= -1
 u_le_y_2_3_7: +1 u_2_3_7 -1 y_2_7 <= +0
 u_le_mode_2_3_7: +1 u_2_3_7 -1 mode_2_3 <= +0
 u_ge_and_2_3_7: +1 u_2_3_7 -1 y_2_7 -1 mode_2_3 >= -1
 u_le_y_2_3_8: +1 u_2_3_8 -1 y_2_8 <= +0
 u_le_mode_2_3_8: +1 u_2_3_8 -1 mode_2_3 <= +0
 u_ge_and_2_3_8: +1 u_2_3_8 -1 y_2_8 -1 mode_2_3 >= -1
 u_le_y_2_3_9: +1 u_2_3_9 -1 y_2_9 <= +0
 u_le_mode_2_3_9: +1 u_2_3_9 -1 mode_2_3 <= +0
 u_ge_and_2_3_9: +1 u_2_3_9 -1 y_2_9 -1 mode_2_3 >= -1
 u_le_y_2_3_10: +1 u_2_3_10 -1 y_2_10 <= +0
 u_le_mode_2_3_10: +1 u_2_3_10 -1 mode_2_3 <= +0
 u_ge_and_2_3_10: +1 u_2_3_10 -1 y_2_10 -1 mode_2_3 >= -1
 u_le_y_2_4_1: +1 u_2_4_1 -1 y_2_1 <= +0
 u_le_mode_2_4_1: +1 u_2_4_1 -1 mode_2_4 <= +0
 u_ge_and_2_4_1: +1 u_2_4_1 -1 y_2_1 -1 mode_2_4 >= -1
 u_le_y_2_4_2: +1 u_2_4_2 -1 y_2_2 <= +0
 u_le_mode_2_4_2: +1 u_2_4_2 -1 mode_2_4 <= +0
 u_ge_and_2_4_2: +1 u_2_4_2 -1 y_2_2 -1 mode_2_4 >= -1
 u_le_y_2_4_3: +1 u_2_4_3 -1 y_2_3 <= +0
 u_le_mode_2_4_3: +1 u_2_4_3 -1 mode_2_4 <= +0
 u_ge_and_2_4_3: +1 u_2_4_3 -1 y_2_3 -1 mode_2_4 >= -1
 u_le_y_2_4_4: +1 u_2_4_4 -1 y_2_4 <= +0
 u_le_mode_2_4_4: +1 u_2_4_4 -1 mode_2_4 <= +0
 u_ge_and_2_4_4: +1 u_2_4_4 -1 y_2_4 -1 mode_2_4 >= -1
 u_le_y_2_4_5: +1 u_2_4_5 -1 y_2_5 <= +0
 u_le_mode_2_4_5: +1 u_2_4_5 -1 mode_2_4 <= +0
 u_ge_and_2_4_5: +1 u_2_4_5 -1 y_2_5 -1 mode_2_4 >= -1
 u_le_y_2_4_6: +1 u_2_4_6 -1 y_2_6 <= +0
 u_le_mode_2_4_6: +1 u_2_4_6 -1 mode_2_4 <= +0
 u_ge_and_2_4_6: +1 u_2_4_6 -1 y_2_6 -1 mode_2_4 >= -1
 u_le_y_2_4_7: +1 u_2_4_7 -1 y_2_7 <= +0
 u_le_mode_2_4_7: +1 u_2_4_7 -1 mode_2_4 <= +0
 u_ge_and_2_4_7: +1 u_2_4_7 -1 y_2_7 -1 mode_2_4 >= -1
 u_le_y_2_4_8: +1 u_2_4_8 -1 y_2_8 <= +0
 u_le_mode_2_4_8: +1 u_2_4_8 -1 mode_2_4 <= +0
 u_ge_and_2_4_8: +1 u_2_4_8 -1 y_2_8 -1 mode_2_4 >= -1
 u_le_y_2_4_9: +1 u_2_4_9 -1 y_2_9 <= +0
 u_le_mode_2_4_9: +1 u_2_4_9 -1 mode_2_4 <= +0
 u_ge_and_2_4_9: +1 u_2_4_9 -1 y_2_9 -1 mode_2_4 >= -1
 u_le_y_2_4_10: +1 u_2_4_10 -1 y_2_10 <= +0
 u_le_mode_2_4_10: +1 u_2_4_10 -1 mode_2_4 <= +0
 u_ge_and_2_4_10: +1 u_2_4_10 -1 y_2_10 -1 mode_2_4 >= -1
 u_le_y_2_5_1: +1 u_2_5_1 -1 y_2_1 <= +0
 u_le_mode_2_5_1: +1 u_2_5_1 -1 mode_2_5 <= +0
 u_ge_and_2_5_1: +1 u_2_5_1 -1 y_2_1 -1 mode_2_5 >= -1
 u_le_y_2_5_2: +1 u_2_5_2 -1 y_2_2 <= +0
 u_le_mode_2_5_2: +1 u_2_5_2 -1 mode_2_5 <= +0
 u_ge_and_2_5_2: +1 u_2_5_2 -1 y_2_2 -1 mode_2_5 >= -1
 u_le_y_2_5_3: +1 u_2_5_3 -1 y_2_3 <= +0
 u_le_mode_2_5_3: +1 u_2_5_3 -1 mode_2_5 <= +0
 u_ge_and_2_5_3: +1 u_2_5_3 -1 y_2_3 -1 mode_2_5 >= -1
 u_le_y_2_5_4: +1 u_2_5_4 -1 y_2_4 <= +0
 u_le_mode_2_5_4: +1 u_2_5_4 -1 mode_2_5 <= +0
 u_ge_and_2_5_4: +1 u_2_5_4 -1 y_2_4 -1 mode_2_5 >= -1
 u_le_y_2_5_5: +1 u_2_5_5 -1 y_2_5 <= +0
 u_le_mode_2_5_5: +1 u_2_5_5 -1 mode_2_5 <= +0
 u_ge_and_2_5_5: +1 u_2_5_5 -1 y_2_5 -1 mode_2_5 >= -1
 u_le_y_2_5_6: +1 u_2_5_6 -1 y_2_6 <= +0
 u_le_mode_2_5_6: +1 u_2_5_6 -1 mode_2_5 <= +0
 u_ge_and_2_5_6: +1 u_2_5_6 -1 y_2_6 -1 mode_2_5 >= -1
 u_le_y_2_5_7: +1 u_2_5_7 -1 y_2_7 <= +0
 u_le_mode_2_5_7: +1 u_2_5_7 -1 mode_2_5 <= +0
 u_ge_and_2_5_7: +1 u_2_5_7 -1 y_2_7 -1 mode_2_5 >= -1
 u_le_y_2_5_8: +1 u_2_5_8 -1 y_2_8 <= +0
 u_le_mode_2_5_8: +1 u_2_5_8 -1 mode_2_5 <= +0
 u_ge_and_2_5_8: +1 u_2_5_8 -1 y_2_8 -1 mode_2_5 >= -1
 u_le_y_2_5_9: +1 u_2_5_9 -1 y_2_9 <= +0
 u_le_mode_2_5_9: +1 u_2_5_9 -1 mode_2_5 <= +0
 u_ge_and_2_5_9: +1 u_2_5_9 -1 y_2_9 -1 mode_2_5 >= -1
 u_le_y_2_5_10: +1 u_2_5_10 -1 y_2_10 <= +0
 u_le_mode_2_5_10: +1 u_2_5_10 -1 mode_2_5 <= +0
 u_ge_and_2_5_10: +1 u_2_5_10 -1 y_2_10 -1 mode_2_5 >= -1
 u_le_y_2_6_1: +1 u_2_6_1 -1 y_2_1 <= +0
 u_le_mode_2_6_1: +1 u_2_6_1 -1 mode_2_6 <= +0
 u_ge_and_2_6_1: +1 u_2_6_1 -1 y_2_1 -1 mode_2_6 >= -1
 u_le_y_2_6_2: +1 u_2_6_2 -1 y_2_2 <= +0
 u_le_mode_2_6_2: +1 u_2_6_2 -1 mode_2_6 <= +0
 u_ge_and_2_6_2: +1 u_2_6_2 -1 y_2_2 -1 mode_2_6 >= -1
 u_le_y_2_6_3: +1 u_2_6_3 -1 y_2_3 <= +0
 u_le_mode_2_6_3: +1 u_2_6_3 -1 mode_2_6 <= +0
 u_ge_and_2_6_3: +1 u_2_6_3 -1 y_2_3 -1 mode_2_6 >= -1
 u_le_y_2_6_4: +1 u_2_6_4 -1 y_2_4 <= +0
 u_le_mode_2_6_4: +1 u_2_6_4 -1 mode_2_6 <= +0
 u_ge_and_2_6_4: +1 u_2_6_4 -1 y_2_4 -1 mode_2_6 >= -1
 u_le_y_2_6_5: +1 u_2_6_5 -1 y_2_5 <= +0
 u_le_mode_2_6_5: +1 u_2_6_5 -1 mode_2_6 <= +0
 u_ge_and_2_6_5: +1 u_2_6_5 -1 y_2_5 -1 mode_2_6 >= -1
 u_le_y_2_6_6: +1 u_2_6_6 -1 y_2_6 <= +0
 u_le_mode_2_6_6: +1 u_2_6_6 -1 mode_2_6 <= +0
 u_ge_and_2_6_6: +1 u_2_6_6 -1 y_2_6 -1 mode_2_6 >= -1
 u_le_y_2_6_7: +1 u_2_6_7 -1 y_2_7 <= +0
 u_le_mode_2_6_7: +1 u_2_6_7 -1 mode_2_6 <= +0
 u_ge_and_2_6_7: +1 u_2_6_7 -1 y_2_7 -1 mode_2_6 >= -1
 u_le_y_2_6_8: +1 u_2_6_8 -1 y_2_8 <= +0
 u_le_mode_2_6_8: +1 u_2_6_8 -1 mode_2_6 <= +0
 u_ge_and_2_6_8: +1 u_2_6_8 -1 y_2_8 -1 mode_2_6 >= -1
 u_le_y_2_6_9: +1 u_2_6_9 -1 y_2_9 <= +0
 u_le_mode_2_6_9: +1 u_2_6_9 -1 mode_2_6 <= +0
 u_ge_and_2_6_9: +1 u_2_6_9 -1 y_2_9 -1 mode_2_6 >= -1
 u_le_y_2_6_10: +1 u_2_6_10 -1 y_2_10 <= +0
 u_le_mode_2_6_10: +1 u_2_6_10 -1 mode_2_6 <= +0
 u_ge_and_2_6_10: +1 u_2_6_10 -1 y_2_10 -1 mode_2_6 >= -1
 u_le_y_2_7_1: +1 u_2_7_1 -1 y_2_1 <= +0
 u_le_mode_2_7_1: +1 u_2_7_1 -1 mode_2_7 <= +0
 u_ge_and_2_7_1: +1 u_2_7_1 -1 y_2_1 -1 mode_2_7 >= -1
 u_le_y_2_7_2: +1 u_2_7_2 -1 y_2_2 <= +0
 u_le_mode_2_7_2: +1 u_2_7_2 -1 mode_2_7 <= +0
 u_ge_and_2_7_2: +1 u_2_7_2 -1 y_2_2 -1 mode_2_7 >= -1
 u_le_y_2_7_3: +1 u_2_7_3 -1 y_2_3 <= +0
 u_le_mode_2_7_3: +1 u_2_7_3 -1 mode_2_7 <= +0
 u_ge_and_2_7_3: +1 u_2_7_3 -1 y_2_3 -1 mode_2_7 >= -1
 u_le_y_2_7_4: +1 u_2_7_4 -1 y_2_4 <= +0
 u_le_mode_2_7_4: +1 u_2_7_4 -1 mode_2_7 <= +0
 u_ge_and_2_7_4: +1 u_2_7_4 -1 y_2_4 -1 mode_2_7 >= -1
 u_le_y_2_7_5: +1 u_2_7_5 -1 y_2_5 <= +0
 u_le_mode_2_7_5: +1 u_2_7_5 -1 mode_2_7 <= +0
 u_ge_and_2_7_5: +1 u_2_7_5 -1 y_2_5 -1 mode_2_7 >= -1
 u_le_y_2_7_6: +1 u_2_7_6 -1 y_2_6 <= +0
 u_le_mode_2_7_6: +1 u_2_7_6 -1 mode_2_7 <= +0
 u_ge_and_2_7_6: +1 u_2_7_6 -1 y_2_6 -1 mode_2_7 >= -1
 u_le_y_2_7_7: +1 u_2_7_7 -1 y_2_7 <= +0
 u_le_mode_2_7_7: +1 u_2_7_7 -1 mode_2_7 <= +0
 u_ge_and_2_7_7: +1 u_2_7_7 -1 y_2_7 -1 mode_2_7 >= -1
 u_le_y_2_7_8: +1 u_2_7_8 -1 y_2_8 <= +0
 u_le_mode_2_7_8: +1 u_2_7_8 -1 mode_2_7 <= +0
 u_ge_and_2_7_8: +1 u_2_7_8 -1 y_2_8 -1 mode_2_7 >= -1
 u_le_y_2_7_9: +1 u_2_7_9 -1 y_2_9 <= +0
 u_le_mode_2_7_9: +1 u_2_7_9 -1 mode_2_7 <= +0
 u_ge_and_2_7_9: +1 u_2_7_9 -1 y_2_9 -1 mode_2_7 >= -1
 u_le_y_2_7_10: +1 u_2_7_10 -1 y_2_10 <= +0
 u_le_mode_2_7_10: +1 u_2_7_10 -1 mode_2_7 <= +0
 u_ge_and_2_7_10: +1 u_2_7_10 -1 y_2_10 -1 mode_2_7 >= -1
 u_le_y_2_8_1: +1 u_2_8_1 -1 y_2_1 <= +0
 u_le_mode_2_8_1: +1 u_2_8_1 -1 mode_2_8 <= +0
 u_ge_and_2_8_1: +1 u_2_8_1 -1 y_2_1 -1 mode_2_8 >= -1
 u_le_y_2_8_2: +1 u_2_8_2 -1 y_2_2 <= +0
 u_le_mode_2_8_2: +1 u_2_8_2 -1 mode_2_8 <= +0
 u_ge_and_2_8_2: +1 u_2_8_2 -1 y_2_2 -1 mode_2_8 >= -1
 u_le_y_2_8_3: +1 u_2_8_3 -1 y_2_3 <= +0
 u_le_mode_2_8_3: +1 u_2_8_3 -1 mode_2_8 <= +0
 u_ge_and_2_8_3: +1 u_2_8_3 -1 y_2_3 -1 mode_2_8 >= -1
 u_le_y_2_8_4: +1 u_2_8_4 -1 y_2_4 <= +0
 u_le_mode_2_8_4: +1 u_2_8_4 -1 mode_2_8 <= +0
 u_ge_and_2_8_4: +1 u_2_8_4 -1 y_2_4 -1 mode_2_8 >= -1
 u_le_y_2_8_5: +1 u_2_8_5 -1 y_2_5 <= +0
 u_le_mode_2_8_5: +1 u_2_8_5 -1 mode_2_8 <= +0
 u_ge_and_2_8_5: +1 u_2_8_5 -1 y_2_5 -1 mode_2_8 >= -1
 u_le_y_2_8_6: +1 u_2_8_6 -1 y_2_6 <= +0
 u_le_mode_2_8_6: +1 u_2_8_6 -1 mode_2_8 <= +0
 u_ge_and_2_8_6: +1 u_2_8_6 -1 y_2_6 -1 mode_2_8 >= -1
 u_le_y_2_8_7: +1 u_2_8_7 -1 y_2_7 <= +0
 u_le_mode_2_8_7: +1 u_2_8_7 -1 mode_2_8 <= +0
 u_ge_and_2_8_7: +1 u_2_8_7 -1 y_2_7 -1 mode_2_8 >= -1
 u_le_y_2_8_8: +1 u_2_8_8 -1 y_2_8 <= +0
 u_le_mode_2_8_8: +1 u_2_8_8 -1 mode_2_8 <= +0
 u_ge_and_2_8_8: +1 u_2_8_8 -1 y_2_8 -1 mode_2_8 >= -1
 u_le_y_2_8_9: +1 u_2_8_9 -1 y_2_9 <= +0
 u_le_mode_2_8_9: +1 u_2_8_9 -1 mode_2_8 <= +0
 u_ge_and_2_8_9: +1 u_2_8_9 -1 y_2_9 -1 mode_2_8 >= -1
 u_le_y_2_8_10: +1 u_2_8_10 -1 y_2_10 <= +0
 u_le_mode_2_8_10: +1 u_2_8_10 -1 mode_2_8 <= +0
 u_ge_and_2_8_10: +1 u_2_8_10 -1 y_2_10 -1 mode_2_8 >= -1
 u_le_y_2_9_1: +1 u_2_9_1 -1 y_2_1 <= +0
 u_le_mode_2_9_1: +1 u_2_9_1 -1 mode_2_9 <= +0
 u_ge_and_2_9_1: +1 u_2_9_1 -1 y_2_1 -1 mode_2_9 >= -1
 u_le_y_2_9_2: +1 u_2_9_2 -1 y_2_2 <= +0
 u_le_mode_2_9_2: +1 u_2_9_2 -1 mode_2_9 <= +0
 u_ge_and_2_9_2: +1 u_2_9_2 -1 y_2_2 -1 mode_2_9 >= -1
 u_le_y_2_9_3: +1 u_2_9_3 -1 y_2_3 <= +0
 u_le_mode_2_9_3: +1 u_2_9_3 -1 mode_2_9 <= +0
 u_ge_and_2_9_3: +1 u_2_9_3 -1 y_2_3 -1 mode_2_9 >= -1
 u_le_y_2_9_4: +1 u_2_9_4 -1 y_2_4 <= +0
 u_le_mode_2_9_4: +1 u_2_9_4 -1 mode_2_9 <= +0
 u_ge_and_2_9_4: +1 u_2_9_4 -1 y_2_4 -1 mode_2_9 >= -1
 u_le_y_2_9_5: +1 u_2_9_5 -1 y_2_5 <= +0
 u_le_mode_2_9_5: +1 u_2_9_5 -1 mode_2_9 <= +0
 u_ge_and_2_9_5: +1 u_2_9_5 -1 y_2_5 -1 mode_2_9 >= -1
 u_le_y_2_9_6: +1 u_2_9_6 -1 y_2_6 <= +0
 u_le_mode_2_9_6: +1 u_2_9_6 -1 mode_2_9 <= +0
 u_ge_and_2_9_6: +1 u_2_9_6 -1 y_2_6 -1 mode_2_9 >= -1
 u_le_y_2_9_7: +1 u_2_9_7 -1 y_2_7 <= +0
 u_le_mode_2_9_7: +1 u_2_9_7 -1 mode_2_9 <= +0
 u_ge_and_2_9_7: +1 u_2_9_7 -1 y_2_7 -1 mode_2_9 >= -1
 u_le_y_2_9_8: +1 u_2_9_8 -1 y_2_8 <= +0
 u_le_mode_2_9_8: +1 u_2_9_8 -1 mode_2_9 <= +0
 u_ge_and_2_9_8: +1 u_2_9_8 -1 y_2_8 -1 mode_2_9 >= -1
 u_le_y_2_9_9: +1 u_2_9_9 -1 y_2_9 <= +0
 u_le_mode_2_9_9: +1 u_2_9_9 -1 mode_2_9 <= +0
 u_ge_and_2_9_9: +1 u_2_9_9 -1 y_2_9 -1 mode_2_9 >= -1
 u_le_y_2_9_10: +1 u_2_9_10 -1 y_2_10 <= +0
 u_le_mode_2_9_10: +1 u_2_9_10 -1 mode_2_9 <= +0
 u_ge_and_2_9_10: +1 u_2_9_10 -1 y_2_10 -1 mode_2_9 >= -1
 u_le_y_2_10_1: +1 u_2_10_1 -1 y_2_1 <= +0
 u_le_mode_2_10_1: +1 u_2_10_1 -1 mode_2_10 <= +0
 u_ge_and_2_10_1: +1 u_2_10_1 -1 y_2_1 -1 mode_2_10 >= -1
 u_le_y_2_10_2: +1 u_2_10_2 -1 y_2_2 <= +0
 u_le_mode_2_10_2: +1 u_2_10_2 -1 mode_2_10 <= +0
 u_ge_and_2_10_2: +1 u_2_10_2 -1 y_2_2 -1 mode_2_10 >= -1
 u_le_y_2_10_3: +1 u_2_10_3 -1 y_2_3 <= +0
 u_le_mode_2_10_3: +1 u_2_10_3 -1 mode_2_10 <= +0
 u_ge_and_2_10_3: +1 u_2_10_3 -1 y_2_3 -1 mode_2_10 >= -1
 u_le_y_2_10_4: +1 u_2_10_4 -1 y_2_4 <= +0
 u_le_mode_2_10_4: +1 u_2_10_4 -1 mode_2_10 <= +0
 u_ge_and_2_10_4: +1 u_2_10_4 -1 y_2_4 -1 mode_2_10 >= -1
 u_le_y_2_10_5: +1 u_2_10_5 -1 y_2_5 <= +0
 u_le_mode_2_10_5: +1 u_2_10_5 -1 mode_2_10 <= +0
 u_ge_and_2_10_5: +1 u_2_10_5 -1 y_2_5 -1 mode_2_10 >= -1
 u_le_y_2_10_6: +1 u_2_10_6 -1 y_2_6 <= +0
 u_le_mode_2_10_6: +1 u_2_10_6 -1 mode_2_10 <= +0
 u_ge_and_2_10_6: +1 u_2_10_6 -1 y_2_6 -1 mode_2_10 >= -1
 u_le_y_2_10_7: +1 u_2_10_7 -1 y_2_7 <= +0
 u_le_mode_2_10_7: +1 u_2_10_7 -1 mode_2_10 <= +0
 u_ge_and_2_10_7: +1 u_2_10_7 -1 y_2_7 -1 mode_2_10 >= -1
 u_le_y_2_10_8: +1 u_2_10_8 -1 y_2_8 <= +0
 u_le_mode_2_10_8: +1 u_2_10_8 -1 mode_2_10 <= +0
 u_ge_and_2_10_8: +1 u_2_10_8 -1 y_2_8 -1 mode_2_10 >= -1
 u_le_y_2_10_9: +1 u_2_10_9 -1 y_2_9 <= +0
 u_le_mode_2_10_9: +1 u_2_10_9 -1 mode_2_10 <= +0
 u_ge_and_2_10_9: +1 u_2_10_9 -1 y_2_9 -1 mode_2_10 >= -1
 u_le_y_2_10_10: +1 u_2_10_10 -1 y_2_10 <= +0
 u_le_mode_2_10_10: +1 u_2_10_10 -1 mode_2_10 <= +0
 u_ge_and_2_10_10: +1 u_2_10_10 -1 y_2_10 -1 mode_2_10 >= -1
 u_le_y_2_11_1: +1 u_2_11_1 -1 y_2_1 <= +0
 u_le_mode_2_11_1: +1 u_2_11_1 -1 mode_2_11 <= +0
 u_ge_and_2_11_1: +1 u_2_11_1 -1 y_2_1 -1 mode_2_11 >= -1
 u_le_y_2_11_2: +1 u_2_11_2 -1 y_2_2 <= +0
 u_le_mode_2_11_2: +1 u_2_11_2 -1 mode_2_11 <= +0
 u_ge_and_2_11_2: +1 u_2_11_2 -1 y_2_2 -1 mode_2_11 >= -1
 u_le_y_2_11_3: +1 u_2_11_3 -1 y_2_3 <= +0
 u_le_mode_2_11_3: +1 u_2_11_3 -1 mode_2_11 <= +0
 u_ge_and_2_11_3: +1 u_2_11_3 -1 y_2_3 -1 mode_2_11 >= -1
 u_le_y_2_11_4: +1 u_2_11_4 -1 y_2_4 <= +0
 u_le_mode_2_11_4: +1 u_2_11_4 -1 mode_2_11 <= +0
 u_ge_and_2_11_4: +1 u_2_11_4 -1 y_2_4 -1 mode_2_11 >= -1
 u_le_y_2_11_5: +1 u_2_11_5 -1 y_2_5 <= +0
 u_le_mode_2_11_5: +1 u_2_11_5 -1 mode_2_11 <= +0
 u_ge_and_2_11_5: +1 u_2_11_5 -1 y_2_5 -1 mode_2_11 >= -1
 u_le_y_2_11_6: +1 u_2_11_6 -1 y_2_6 <= +0
 u_le_mode_2_11_6: +1 u_2_11_6 -1 mode_2_11 <= +0
 u_ge_and_2_11_6: +1 u_2_11_6 -1 y_2_6 -1 mode_2_11 >= -1
 u_le_y_2_11_7: +1 u_2_11_7 -1 y_2_7 <= +0
 u_le_mode_2_11_7: +1 u_2_11_7 -1 mode_2_11 <= +0
 u_ge_and_2_11_7: +1 u_2_11_7 -1 y_2_7 -1 mode_2_11 >= -1
 u_le_y_2_11_8: +1 u_2_11_8 -1 y_2_8 <= +0
 u_le_mode_2_11_8: +1 u_2_11_8 -1 mode_2_11 <= +0
 u_ge_and_2_11_8: +1 u_2_11_8 -1 y_2_8 -1 mode_2_11 >= -1
 u_le_y_2_11_9: +1 u_2_11_9 -1 y_2_9 <= +0
 u_le_mode_2_11_9: +1 u_2_11_9 -1 mode_2_11 <= +0
 u_ge_and_2_11_9: +1 u_2_11_9 -1 y_2_9 -1 mode_2_11 >= -1
 u_le_y_2_11_10: +1 u_2_11_10 -1 y_2_10 <= +0
 u_le_mode_2_11_10: +1 u_2_11_10 -1 mode_2_11 <= +0
 u_ge_and_2_11_10: +1 u_2_11_10 -1 y_2_10 -1 mode_2_11 >= -1
 u_le_y_2_12_1: +1 u_2_12_1 -1 y_2_1 <= +0
 u_le_mode_2_12_1: +1 u_2_12_1 -1 mode_2_12 <= +0
 u_ge_and_2_12_1: +1 u_2_12_1 -1 y_2_1 -1 mode_2_12 >= -1
 u_le_y_2_12_2: +1 u_2_12_2 -1 y_2_2 <= +0
 u_le_mode_2_12_2: +1 u_2_12_2 -1 mode_2_12 <= +0
 u_ge_and_2_12_2: +1 u_2_12_2 -1 y_2_2 -1 mode_2_12 >= -1
 u_le_y_2_12_3: +1 u_2_12_3 -1 y_2_3 <= +0
 u_le_mode_2_12_3: +1 u_2_12_3 -1 mode_2_12 <= +0
 u_ge_and_2_12_3: +1 u_2_12_3 -1 y_2_3 -1 mode_2_12 >= -1
 u_le_y_2_12_4: +1 u_2_12_4 -1 y_2_4 <= +0
 u_le_mode_2_12_4: +1 u_2_12_4 -1 mode_2_12 <= +0
 u_ge_and_2_12_4: +1 u_2_12_4 -1 y_2_4 -1 mode_2_12 >= -1
 u_le_y_2_12_5: +1 u_2_12_5 -1 y_2_5 <= +0
 u_le_mode_2_12_5: +1 u_2_12_5 -1 mode_2_12 <= +0
 u_ge_and_2_12_5: +1 u_2_12_5 -1 y_2_5 -1 mode_2_12 >= -1
 u_le_y_2_12_6: +1 u_2_12_6 -1 y_2_6 <= +0
 u_le_mode_2_12_6: +1 u_2_12_6 -1 mode_2_12 <= +0
 u_ge_and_2_12_6: +1 u_2_12_6 -1 y_2_6 -1 mode_2_12 >= -1
 u_le_y_2_12_7: +1 u_2_12_7 -1 y_2_7 <= +0
 u_le_mode_2_12_7: +1 u_2_12_7 -1 mode_2_12 <= +0
 u_ge_and_2_12_7: +1 u_2_12_7 -1 y_2_7 -1 mode_2_12 >= -1
 u_le_y_2_12_8: +1 u_2_12_8 -1 y_2_8 <= +0
 u_le_mode_2_12_8: +1 u_2_12_8 -1 mode_2_12 <= +0
 u_ge_and_2_12_8: +1 u_2_12_8 -1 y_2_8 -1 mode_2_12 >= -1
 u_le_y_2_12_9: +1 u_2_12_9 -1 y_2_9 <= +0
 u_le_mode_2_12_9: +1 u_2_12_9 -1 mode_2_12 <= +0
 u_ge_and_2_12_9: +1 u_2_12_9 -1 y_2_9 -1 mode_2_12 >= -1
 u_le_y_2_12_10: +1 u_2_12_10 -1 y_2_10 <= +0
 u_le_mode_2_12_10: +1 u_2_12_10 -1 mode_2_12 <= +0
 u_ge_and_2_12_10: +1 u_2_12_10 -1 y_2_10 -1 mode_2_12 >= -1
 u_le_y_2_13_1: +1 u_2_13_1 -1 y_2_1 <= +0
 u_le_mode_2_13_1: +1 u_2_13_1 -1 mode_2_13 <= +0
 u_ge_and_2_13_1: +1 u_2_13_1 -1 y_2_1 -1 mode_2_13 >= -1
 u_le_y_2_13_2: +1 u_2_13_2 -1 y_2_2 <= +0
 u_le_mode_2_13_2: +1 u_2_13_2 -1 mode_2_13 <= +0
 u_ge_and_2_13_2: +1 u_2_13_2 -1 y_2_2 -1 mode_2_13 >= -1
 u_le_y_2_13_3: +1 u_2_13_3 -1 y_2_3 <= +0
 u_le_mode_2_13_3: +1 u_2_13_3 -1 mode_2_13 <= +0
 u_ge_and_2_13_3: +1 u_2_13_3 -1 y_2_3 -1 mode_2_13 >= -1
 u_le_y_2_13_4: +1 u_2_13_4 -1 y_2_4 <= +0
 u_le_mode_2_13_4: +1 u_2_13_4 -1 mode_2_13 <= +0
 u_ge_and_2_13_4: +1 u_2_13_4 -1 y_2_4 -1 mode_2_13 >= -1
 u_le_y_2_13_5: +1 u_2_13_5 -1 y_2_5 <= +0
 u_le_mode_2_13_5: +1 u_2_13_5 -1 mode_2_13 <= +0
 u_ge_and_2_13_5: +1 u_2_13_5 -1 y_2_5 -1 mode_2_13 >= -1
 u_le_y_2_13_6: +1 u_2_13_6 -1 y_2_6 <= +0
 u_le_mode_2_13_6: +1 u_2_13_6 -1 mode_2_13 <= +0
 u_ge_and_2_13_6: +1 u_2_13_6 -1 y_2_6 -1 mode_2_13 >= -1
 u_le_y_2_13_7: +1 u_2_13_7 -1 y_2_7 <= +0
 u_le_mode_2_13_7: +1 u_2_13_7 -1 mode_2_13 <= +0
 u_ge_and_2_13_7: +1 u_2_13_7 -1 y_2_7 -1 mode_2_13 >= -1
 u_le_y_2_13_8: +1 u_2_13_8 -1 y_2_8 <= +0
 u_le_mode_2_13_8: +1 u_2_13_8 -1 mode_2_13 <= +0
 u_ge_and_2_13_8: +1 u_2_13_8 -1 y_2_8 -1 mode_2_13 >= -1
 u_le_y_2_13_9: +1 u_2_13_9 -1 y_2_9 <= +0
 u_le_mode_2_13_9: +1 u_2_13_9 -1 mode_2_13 <= +0
 u_ge_and_2_13_9: +1 u_2_13_9 -1 y_2_9 -1 mode_2_13 >= -1
 u_le_y_2_13_10: +1 u_2_13_10 -1 y_2_10 <= +0
 u_le_mode_2_13_10: +1 u_2_13_10 -1 mode_2_13 <= +0
 u_ge_and_2_13_10: +1 u_2_13_10 -1 y_2_10 -1 mode_2_13 >= -1
 u_le_y_2_14_1: +1 u_2_14_1 -1 y_2_1 <= +0
 u_le_mode_2_14_1: +1 u_2_14_1 -1 mode_2_14 <= +0
 u_ge_and_2_14_1: +1 u_2_14_1 -1 y_2_1 -1 mode_2_14 >= -1
 u_le_y_2_14_2: +1 u_2_14_2 -1 y_2_2 <= +0
 u_le_mode_2_14_2: +1 u_2_14_2 -1 mode_2_14 <= +0
 u_ge_and_2_14_2: +1 u_2_14_2 -1 y_2_2 -1 mode_2_14 >= -1
 u_le_y_2_14_3: +1 u_2_14_3 -1 y_2_3 <= +0
 u_le_mode_2_14_3: +1 u_2_14_3 -1 mode_2_14 <= +0
 u_ge_and_2_14_3: +1 u_2_14_3 -1 y_2_3 -1 mode_2_14 >= -1
 u_le_y_2_14_4: +1 u_2_14_4 -1 y_2_4 <= +0
 u_le_mode_2_14_4: +1 u_2_14_4 -1 mode_2_14 <= +0
 u_ge_and_2_14_4: +1 u_2_14_4 -1 y_2_4 -1 mode_2_14 >= -1
 u_le_y_2_14_5: +1 u_2_14_5 -1 y_2_5 <= +0
 u_le_mode_2_14_5: +1 u_2_14_5 -1 mode_2_14 <= +0
 u_ge_and_2_14_5: +1 u_2_14_5 -1 y_2_5 -1 mode_2_14 >= -1
 u_le_y_2_14_6: +1 u_2_14_6 -1 y_2_6 <= +0
 u_le_mode_2_14_6: +1 u_2_14_6 -1 mode_2_14 <= +0
 u_ge_and_2_14_6: +1 u_2_14_6 -1 y_2_6 -1 mode_2_14 >= -1
 u_le_y_2_14_7: +1 u_2_14_7 -1 y_2_7 <= +0
 u_le_mode_2_14_7: +1 u_2_14_7 -1 mode_2_14 <= +0
 u_ge_and_2_14_7: +1 u_2_14_7 -1 y_2_7 -1 mode_2_14 >= -1
 u_le_y_2_14_8: +1 u_2_14_8 -1 y_2_8 <= +0
 u_le_mode_2_14_8: +1 u_2_14_8 -1 mode_2_14 <= +0
 u_ge_and_2_14_8: +1 u_2_14_8 -1 y_2_8 -1 mode_2_14 >= -1
 u_le_y_2_14_9: +1 u_2_14_9 -1 y_2_9 <= +0
 u_le_mode_2_14_9: +1 u_2_14_9 -1 mode_2_14 <= +0
 u_ge_and_2_14_9: +1 u_2_14_9 -1 y_2_9 -1 mode_2_14 >= -1
 u_le_y_2_14_10: +1 u_2_14_10 -1 y_2_10 <= +0
 u_le_mode_2_14_10: +1 u_2_14_10 -1 mode_2_14 <= +0
 u_ge_and_2_14_10: +1 u_2_14_10 -1 y_2_10 -1 mode_2_14 >= -1
 u_le_y_2_15_1: +1 u_2_15_1 -1 y_2_1 <= +0
 u_le_mode_2_15_1: +1 u_2_15_1 -1 mode_2_15 <= +0
 u_ge_and_2_15_1: +1 u_2_15_1 -1 y_2_1 -1 mode_2_15 >= -1
 u_le_y_2_15_2: +1 u_2_15_2 -1 y_2_2 <= +0
 u_le_mode_2_15_2: +1 u_2_15_2 -1 mode_2_15 <= +0
 u_ge_and_2_15_2: +1 u_2_15_2 -1 y_2_2 -1 mode_2_15 >= -1
 u_le_y_2_15_3: +1 u_2_15_3 -1 y_2_3 <= +0
 u_le_mode_2_15_3: +1 u_2_15_3 -1 mode_2_15 <= +0
 u_ge_and_2_15_3: +1 u_2_15_3 -1 y_2_3 -1 mode_2_15 >= -1
 u_le_y_2_15_4: +1 u_2_15_4 -1 y_2_4 <= +0
 u_le_mode_2_15_4: +1 u_2_15_4 -1 mode_2_15 <= +0
 u_ge_and_2_15_4: +1 u_2_15_4 -1 y_2_4 -1 mode_2_15 >= -1
 u_le_y_2_15_5: +1 u_2_15_5 -1 y_2_5 <= +0
 u_le_mode_2_15_5: +1 u_2_15_5 -1 mode_2_15 <= +0
 u_ge_and_2_15_5: +1 u_2_15_5 -1 y_2_5 -1 mode_2_15 >= -1
 u_le_y_2_15_6: +1 u_2_15_6 -1 y_2_6 <= +0
 u_le_mode_2_15_6: +1 u_2_15_6 -1 mode_2_15 <= +0
 u_ge_and_2_15_6: +1 u_2_15_6 -1 y_2_6 -1 mode_2_15 >= -1
 u_le_y_2_15_7: +1 u_2_15_7 -1 y_2_7 <= +0
 u_le_mode_2_15_7: +1 u_2_15_7 -1 mode_2_15 <= +0
 u_ge_and_2_15_7: +1 u_2_15_7 -1 y_2_7 -1 mode_2_15 >= -1
 u_le_y_2_15_8: +1 u_2_15_8 -1 y_2_8 <= +0
 u_le_mode_2_15_8: +1 u_2_15_8 -1 mode_2_15 <= +0
 u_ge_and_2_15_8: +1 u_2_15_8 -1 y_2_8 -1 mode_2_15 >= -1
 u_le_y_2_15_9: +1 u_2_15_9 -1 y_2_9 <= +0
 u_le_mode_2_15_9: +1 u_2_15_9 -1 mode_2_15 <= +0
 u_ge_and_2_15_9: +1 u_2_15_9 -1 y_2_9 -1 mode_2_15 >= -1
 u_le_y_2_15_10: +1 u_2_15_10 -1 y_2_10 <= +0
 u_le_mode_2_15_10: +1 u_2_15_10 -1 mode_2_15 <= +0
 u_ge_and_2_15_10: +1 u_2_15_10 -1 y_2_10 -1 mode_2_15 >= -1
 u_le_y_2_16_1: +1 u_2_16_1 -1 y_2_1 <= +0
 u_le_mode_2_16_1: +1 u_2_16_1 -1 mode_2_16 <= +0
 u_ge_and_2_16_1: +1 u_2_16_1 -1 y_2_1 -1 mode_2_16 >= -1
 u_le_y_2_16_2: +1 u_2_16_2 -1 y_2_2 <= +0
 u_le_mode_2_16_2: +1 u_2_16_2 -1 mode_2_16 <= +0
 u_ge_and_2_16_2: +1 u_2_16_2 -1 y_2_2 -1 mode_2_16 >= -1
 u_le_y_2_16_3: +1 u_2_16_3 -1 y_2_3 <= +0
 u_le_mode_2_16_3: +1 u_2_16_3 -1 mode_2_16 <= +0
 u_ge_and_2_16_3: +1 u_2_16_3 -1 y_2_3 -1 mode_2_16 >= -1
 u_le_y_2_16_4: +1 u_2_16_4 -1 y_2_4 <= +0
 u_le_mode_2_16_4: +1 u_2_16_4 -1 mode_2_16 <= +0
 u_ge_and_2_16_4: +1 u_2_16_4 -1 y_2_4 -1 mode_2_16 >= -1
 u_le_y_2_16_5: +1 u_2_16_5 -1 y_2_5 <= +0
 u_le_mode_2_16_5: +1 u_2_16_5 -1 mode_2_16 <= +0
 u_ge_and_2_16_5: +1 u_2_16_5 -1 y_2_5 -1 mode_2_16 >= -1
 u_le_y_2_16_6: +1 u_2_16_6 -1 y_2_6 <= +0
 u_le_mode_2_16_6: +1 u_2_16_6 -1 mode_2_16 <= +0
 u_ge_and_2_16_6: +1 u_2_16_6 -1 y_2_6 -1 mode_2_16 >= -1
 u_le_y_2_16_7: +1 u_2_16_7 -1 y_2_7 <= +0
 u_le_mode_2_16_7: +1 u_2_16_7 -1 mode_2_16 <= +0
 u_ge_and_2_16_7: +1 u_2_16_7 -1 y_2_7 -1 mode_2_16 >= -1
 u_le_y_2_16_8: +1 u_2_16_8 -1 y_2_8 <= +0
 u_le_mode_2_16_8: +1 u_2_16_8 -1 mode_2_16 <= +0
 u_ge_and_2_16_8: +1 u_2_16_8 -1 y_2_8 -1 mode_2_16 >= -1
 u_le_y_2_16_9: +1 u_2_16_9 -1 y_2_9 <= +0
 u_le_mode_2_16_9: +1 u_2_16_9 -1 mode_2_16 <= +0
 u_ge_and_2_16_9: +1 u_2_16_9 -1 y_2_9 -1 mode_2_16 >= -1
 u_le_y_2_16_10: +1 u_2_16_10 -1 y_2_10 <= +0
 u_le_mode_2_16_10: +1 u_2_16_10 -1 mode_2_16 <= +0
 u_ge_and_2_16_10: +1 u_2_16_10 -1 y_2_10 -1 mode_2_16 >= -1
 u_le_y_2_17_1: +1 u_2_17_1 -1 y_2_1 <= +0
 u_le_mode_2_17_1: +1 u_2_17_1 -1 mode_2_17 <= +0
 u_ge_and_2_17_1: +1 u_2_17_1 -1 y_2_1 -1 mode_2_17 >= -1
 u_le_y_2_17_2: +1 u_2_17_2 -1 y_2_2 <= +0
 u_le_mode_2_17_2: +1 u_2_17_2 -1 mode_2_17 <= +0
 u_ge_and_2_17_2: +1 u_2_17_2 -1 y_2_2 -1 mode_2_17 >= -1
 u_le_y_2_17_3: +1 u_2_17_3 -1 y_2_3 <= +0
 u_le_mode_2_17_3: +1 u_2_17_3 -1 mode_2_17 <= +0
 u_ge_and_2_17_3: +1 u_2_17_3 -1 y_2_3 -1 mode_2_17 >= -1
 u_le_y_2_17_4: +1 u_2_17_4 -1 y_2_4 <= +0
 u_le_mode_2_17_4: +1 u_2_17_4 -1 mode_2_17 <= +0
 u_ge_and_2_17_4: +1 u_2_17_4 -1 y_2_4 -1 mode_2_17 >= -1
 u_le_y_2_17_5: +1 u_2_17_5 -1 y_2_5 <= +0
 u_le_mode_2_17_5: +1 u_2_17_5 -1 mode_2_17 <= +0
 u_ge_and_2_17_5: +1 u_2_17_5 -1 y_2_5 -1 mode_2_17 >= -1
 u_le_y_2_17_6: +1 u_2_17_6 -1 y_2_6 <= +0
 u_le_mode_2_17_6: +1 u_2_17_6 -1 mode_2_17 <= +0
 u_ge_and_2_17_6: +1 u_2_17_6 -1 y_2_6 -1 mode_2_17 >= -1
 u_le_y_2_17_7: +1 u_2_17_7 -1 y_2_7 <= +0
 u_le_mode_2_17_7: +1 u_2_17_7 -1 mode_2_17 <= +0
 u_ge_and_2_17_7: +1 u_2_17_7 -1 y_2_7 -1 mode_2_17 >= -1
 u_le_y_2_17_8: +1 u_2_17_8 -1 y_2_8 <= +0
 u_le_mode_2_17_8: +1 u_2_17_8 -1 mode_2_17 <= +0
 u_ge_and_2_17_8: +1 u_2_17_8 -1 y_2_8 -1 mode_2_17 >= -1
 u_le_y_2_17_9: +1 u_2_17_9 -1 y_2_9 <= +0
 u_le_mode_2_17_9: +1 u_2_17_9 -1 mode_2_17 <= +0
 u_ge_and_2_17_9: +1 u_2_17_9 -1 y_2_9 -1 mode_2_17 >= -1
 u_le_y_2_17_10: +1 u_2_17_10 -1 y_2_10 <= +0
 u_le_mode_2_17_10: +1 u_2_17_10 -1 mode_2_17 <= +0
 u_ge_and_2_17_10: +1 u_2_17_10 -1 y_2_10 -1 mode_2_17 >= -1
 u_le_y_2_18_1: +1 u_2_18_1 -1 y_2_1 <= +0
 u_le_mode_2_18_1: +1 u_2_18_1 -1 mode_2_18 <= +0
 u_ge_and_2_18_1: +1 u_2_18_1 -1 y_2_1 -1 mode_2_18 >= -1
 u_le_y_2_18_2: +1 u_2_18_2 -1 y_2_2 <= +0
 u_le_mode_2_18_2: +1 u_2_18_2 -1 mode_2_18 <= +0
 u_ge_and_2_18_2: +1 u_2_18_2 -1 y_2_2 -1 mode_2_18 >= -1
 u_le_y_2_18_3: +1 u_2_18_3 -1 y_2_3 <= +0
 u_le_mode_2_18_3: +1 u_2_18_3 -1 mode_2_18 <= +0
 u_ge_and_2_18_3: +1 u_2_18_3 -1 y_2_3 -1 mode_2_18 >= -1
 u_le_y_2_18_4: +1 u_2_18_4 -1 y_2_4 <= +0
 u_le_mode_2_18_4: +1 u_2_18_4 -1 mode_2_18 <= +0
 u_ge_and_2_18_4: +1 u_2_18_4 -1 y_2_4 -1 mode_2_18 >= -1
 u_le_y_2_18_5: +1 u_2_18_5 -1 y_2_5 <= +0
 u_le_mode_2_18_5: +1 u_2_18_5 -1 mode_2_18 <= +0
 u_ge_and_2_18_5: +1 u_2_18_5 -1 y_2_5 -1 mode_2_18 >= -1
 u_le_y_2_18_6: +1 u_2_18_6 -1 y_2_6 <= +0
 u_le_mode_2_18_6: +1 u_2_18_6 -1 mode_2_18 <= +0
 u_ge_and_2_18_6: +1 u_2_18_6 -1 y_2_6 -1 mode_2_18 >= -1
 u_le_y_2_18_7: +1 u_2_18_7 -1 y_2_7 <= +0
 u_le_mode_2_18_7: +1 u_2_18_7 -1 mode_2_18 <= +0
 u_ge_and_2_18_7: +1 u_2_18_7 -1 y_2_7 -1 mode_2_18 >= -1
 u_le_y_2_18_8: +1 u_2_18_8 -1 y_2_8 <= +0
 u_le_mode_2_18_8: +1 u_2_18_8 -1 mode_2_18 <= +0
 u_ge_and_2_18_8: +1 u_2_18_8 -1 y_2_8 -1 mode_2_18 >= -1
 u_le_y_2_18_9: +1 u_2_18_9 -1 y_2_9 <= +0
 u_le_mode_2_18_9: +1 u_2_18_9 -1 mode_2_18 <= +0
 u_ge_and_2_18_9: +1 u_2_18_9 -1 y_2_9 -1 mode_2_18 >= -1
 u_le_y_2_18_10: +1 u_2_18_10 -1 y_2_10 <= +0
 u_le_mode_2_18_10: +1 u_2_18_10 -1 mode_2_18 <= +0
 u_ge_and_2_18_10: +1 u_2_18_10 -1 y_2_10 -1 mode_2_18 >= -1
 u_le_y_2_19_1: +1 u_2_19_1 -1 y_2_1 <= +0
 u_le_mode_2_19_1: +1 u_2_19_1 -1 mode_2_19 <= +0
 u_ge_and_2_19_1: +1 u_2_19_1 -1 y_2_1 -1 mode_2_19 >= -1
 u_le_y_2_19_2: +1 u_2_19_2 -1 y_2_2 <= +0
 u_le_mode_2_19_2: +1 u_2_19_2 -1 mode_2_19 <= +0
 u_ge_and_2_19_2: +1 u_2_19_2 -1 y_2_2 -1 mode_2_19 >= -1
 u_le_y_2_19_3: +1 u_2_19_3 -1 y_2_3 <= +0
 u_le_mode_2_19_3: +1 u_2_19_3 -1 mode_2_19 <= +0
 u_ge_and_2_19_3: +1 u_2_19_3 -1 y_2_3 -1 mode_2_19 >= -1
 u_le_y_2_19_4: +1 u_2_19_4 -1 y_2_4 <= +0
 u_le_mode_2_19_4: +1 u_2_19_4 -1 mode_2_19 <= +0
 u_ge_and_2_19_4: +1 u_2_19_4 -1 y_2_4 -1 mode_2_19 >= -1
 u_le_y_2_19_5: +1 u_2_19_5 -1 y_2_5 <= +0
 u_le_mode_2_19_5: +1 u_2_19_5 -1 mode_2_19 <= +0
 u_ge_and_2_19_5: +1 u_2_19_5 -1 y_2_5 -1 mode_2_19 >= -1
 u_le_y_2_19_6: +1 u_2_19_6 -1 y_2_6 <= +0
 u_le_mode_2_19_6: +1 u_2_19_6 -1 mode_2_19 <= +0
 u_ge_and_2_19_6: +1 u_2_19_6 -1 y_2_6 -1 mode_2_19 >= -1
 u_le_y_2_19_7: +1 u_2_19_7 -1 y_2_7 <= +0
 u_le_mode_2_19_7: +1 u_2_19_7 -1 mode_2_19 <= +0
 u_ge_and_2_19_7: +1 u_2_19_7 -1 y_2_7 -1 mode_2_19 >= -1
 u_le_y_2_19_8: +1 u_2_19_8 -1 y_2_8 <= +0
 u_le_mode_2_19_8: +1 u_2_19_8 -1 mode_2_19 <= +0
 u_ge_and_2_19_8: +1 u_2_19_8 -1 y_2_8 -1 mode_2_19 >= -1
 u_le_y_2_19_9: +1 u_2_19_9 -1 y_2_9 <= +0
 u_le_mode_2_19_9: +1 u_2_19_9 -1 mode_2_19 <= +0
 u_ge_and_2_19_9: +1 u_2_19_9 -1 y_2_9 -1 mode_2_19 >= -1
 u_le_y_2_19_10: +1 u_2_19_10 -1 y_2_10 <= +0
 u_le_mode_2_19_10: +1 u_2_19_10 -1 mode_2_19 <= +0
 u_ge_and_2_19_10: +1 u_2_19_10 -1 y_2_10 -1 mode_2_19 >= -1
 u_le_y_2_20_1: +1 u_2_20_1 -1 y_2_1 <= +0
 u_le_mode_2_20_1: +1 u_2_20_1 -1 mode_2_20 <= +0
 u_ge_and_2_20_1: +1 u_2_20_1 -1 y_2_1 -1 mode_2_20 >= -1
 u_le_y_2_20_2: +1 u_2_20_2 -1 y_2_2 <= +0
 u_le_mode_2_20_2: +1 u_2_20_2 -1 mode_2_20 <= +0
 u_ge_and_2_20_2: +1 u_2_20_2 -1 y_2_2 -1 mode_2_20 >= -1
 u_le_y_2_20_3: +1 u_2_20_3 -1 y_2_3 <= +0
 u_le_mode_2_20_3: +1 u_2_20_3 -1 mode_2_20 <= +0
 u_ge_and_2_20_3: +1 u_2_20_3 -1 y_2_3 -1 mode_2_20 >= -1
 u_le_y_2_20_4: +1 u_2_20_4 -1 y_2_4 <= +0
 u_le_mode_2_20_4: +1 u_2_20_4 -1 mode_2_20 <= +0
 u_ge_and_2_20_4: +1 u_2_20_4 -1 y_2_4 -1 mode_2_20 >= -1
 u_le_y_2_20_5: +1 u_2_20_5 -1 y_2_5 <= +0
 u_le_mode_2_20_5: +1 u_2_20_5 -1 mode_2_20 <= +0
 u_ge_and_2_20_5: +1 u_2_20_5 -1 y_2_5 -1 mode_2_20 >= -1
 u_le_y_2_20_6: +1 u_2_20_6 -1 y_2_6 <= +0
 u_le_mode_2_20_6: +1 u_2_20_6 -1 mode_2_20 <= +0
 u_ge_and_2_20_6: +1 u_2_20_6 -1 y_2_6 -1 mode_2_20 >= -1
 u_le_y_2_20_7: +1 u_2_20_7 -1 y_2_7 <= +0
 u_le_mode_2_20_7: +1 u_2_20_7 -1 mode_2_20 <= +0
 u_ge_and_2_20_7: +1 u_2_20_7 -1 y_2_7 -1 mode_2_20 >= -1
 u_le_y_2_20_8: +1 u_2_20_8 -1 y_2_8 <= +0
 u_le_mode_2_20_8: +1 u_2_20_8 -1 mode_2_20 <= +0
 u_ge_and_2_20_8: +1 u_2_20_8 -1 y_2_8 -1 mode_2_20 >= -1
 u_le_y_2_20_9: +1 u_2_20_9 -1 y_2_9 <= +0
 u_le_mode_2_20_9: +1 u_2_20_9 -1 mode_2_20 <= +0
 u_ge_and_2_20_9: +1 u_2_20_9 -1 y_2_9 -1 mode_2_20 >= -1
 u_le_y_2_20_10: +1 u_2_20_10 -1 y_2_10 <= +0
 u_le_mode_2_20_10: +1 u_2_20_10 -1 mode_2_20 <= +0
 u_ge_and_2_20_10: +1 u_2_20_10 -1 y_2_10 -1 mode_2_20 >= -1
 u_le_y_2_21_1: +1 u_2_21_1 -1 y_2_1 <= +0
 u_le_mode_2_21_1: +1 u_2_21_1 -1 mode_2_21 <= +0
 u_ge_and_2_21_1: +1 u_2_21_1 -1 y_2_1 -1 mode_2_21 >= -1
 u_le_y_2_21_2: +1 u_2_21_2 -1 y_2_2 <= +0
 u_le_mode_2_21_2: +1 u_2_21_2 -1 mode_2_21 <= +0
 u_ge_and_2_21_2: +1 u_2_21_2 -1 y_2_2 -1 mode_2_21 >= -1
 u_le_y_2_21_3: +1 u_2_21_3 -1 y_2_3 <= +0
 u_le_mode_2_21_3: +1 u_2_21_3 -1 mode_2_21 <= +0
 u_ge_and_2_21_3: +1 u_2_21_3 -1 y_2_3 -1 mode_2_21 >= -1
 u_le_y_2_21_4: +1 u_2_21_4 -1 y_2_4 <= +0
 u_le_mode_2_21_4: +1 u_2_21_4 -1 mode_2_21 <= +0
 u_ge_and_2_21_4: +1 u_2_21_4 -1 y_2_4 -1 mode_2_21 >= -1
 u_le_y_2_21_5: +1 u_2_21_5 -1 y_2_5 <= +0
 u_le_mode_2_21_5: +1 u_2_21_5 -1 mode_2_21 <= +0
 u_ge_and_2_21_5: +1 u_2_21_5 -1 y_2_5 -1 mode_2_21 >= -1
 u_le_y_2_21_6: +1 u_2_21_6 -1 y_2_6 <= +0
 u_le_mode_2_21_6: +1 u_2_21_6 -1 mode_2_21 <= +0
 u_ge_and_2_21_6: +1 u_2_21_6 -1 y_2_6 -1 mode_2_21 >= -1
 u_le_y_2_21_7: +1 u_2_21_7 -1 y_2_7 <= +0
 u_le_mode_2_21_7: +1 u_2_21_7 -1 mode_2_21 <= +0
 u_ge_and_2_21_7: +1 u_2_21_7 -1 y_2_7 -1 mode_2_21 >= -1
 u_le_y_2_21_8: +1 u_2_21_8 -1 y_2_8 <= +0
 u_le_mode_2_21_8: +1 u_2_21_8 -1 mode_2_21 <= +0
 u_ge_and_2_21_8: +1 u_2_21_8 -1 y_2_8 -1 mode_2_21 >= -1
 u_le_y_2_21_9: +1 u_2_21_9 -1 y_2_9 <= +0
 u_le_mode_2_21_9: +1 u_2_21_9 -1 mode_2_21 <= +0
 u_ge_and_2_21_9: +1 u_2_21_9 -1 y_2_9 -1 mode_2_21 >= -1
 u_le_y_2_21_10: +1 u_2_21_10 -1 y_2_10 <= +0
 u_le_mode_2_21_10: +1 u_2_21_10 -1 mode_2_21 <= +0
 u_ge_and_2_21_10: +1 u_2_21_10 -1 y_2_10 -1 mode_2_21 >= -1
 u_le_y_2_22_1: +1 u_2_22_1 -1 y_2_1 <= +0
 u_le_mode_2_22_1: +1 u_2_22_1 -1 mode_2_22 <= +0
 u_ge_and_2_22_1: +1 u_2_22_1 -1 y_2_1 -1 mode_2_22 >= -1
 u_le_y_2_22_2: +1 u_2_22_2 -1 y_2_2 <= +0
 u_le_mode_2_22_2: +1 u_2_22_2 -1 mode_2_22 <= +0
 u_ge_and_2_22_2: +1 u_2_22_2 -1 y_2_2 -1 mode_2_22 >= -1
 u_le_y_2_22_3: +1 u_2_22_3 -1 y_2_3 <= +0
 u_le_mode_2_22_3: +1 u_2_22_3 -1 mode_2_22 <= +0
 u_ge_and_2_22_3: +1 u_2_22_3 -1 y_2_3 -1 mode_2_22 >= -1
 u_le_y_2_22_4: +1 u_2_22_4 -1 y_2_4 <= +0
 u_le_mode_2_22_4: +1 u_2_22_4 -1 mode_2_22 <= +0
 u_ge_and_2_22_4: +1 u_2_22_4 -1 y_2_4 -1 mode_2_22 >= -1
 u_le_y_2_22_5: +1 u_2_22_5 -1 y_2_5 <= +0
 u_le_mode_2_22_5: +1 u_2_22_5 -1 mode_2_22 <= +0
 u_ge_and_2_22_5: +1 u_2_22_5 -1 y_2_5 -1 mode_2_22 >= -1
 u_le_y_2_22_6: +1 u_2_22_6 -1 y_2_6 <= +0
 u_le_mode_2_22_6: +1 u_2_22_6 -1 mode_2_22 <= +0
 u_ge_and_2_22_6: +1 u_2_22_6 -1 y_2_6 -1 mode_2_22 >= -1
 u_le_y_2_22_7: +1 u_2_22_7 -1 y_2_7 <= +0
 u_le_mode_2_22_7: +1 u_2_22_7 -1 mode_2_22 <= +0
 u_ge_and_2_22_7: +1 u_2_22_7 -1 y_2_7 -1 mode_2_22 >= -1
 u_le_y_2_22_8: +1 u_2_22_8 -1 y_2_8 <= +0
 u_le_mode_2_22_8: +1 u_2_22_8 -1 mode_2_22 <= +0
 u_ge_and_2_22_8: +1 u_2_22_8 -1 y_2_8 -1 mode_2_22 >= -1
 u_le_y_2_22_9: +1 u_2_22_9 -1 y_2_9 <= +0
 u_le_mode_2_22_9: +1 u_2_22_9 -1 mode_2_22 <= +0
 u_ge_and_2_22_9: +1 u_2_22_9 -1 y_2_9 -1 mode_2_22 >= -1
 u_le_y_2_22_10: +1 u_2_22_10 -1 y_2_10 <= +0
 u_le_mode_2_22_10: +1 u_2_22_10 -1 mode_2_22 <= +0
 u_ge_and_2_22_10: +1 u_2_22_10 -1 y_2_10 -1 mode_2_22 >= -1
 u_le_y_2_23_1: +1 u_2_23_1 -1 y_2_1 <= +0
 u_le_mode_2_23_1: +1 u_2_23_1 -1 mode_2_23 <= +0
 u_ge_and_2_23_1: +1 u_2_23_1 -1 y_2_1 -1 mode_2_23 >= -1
 u_le_y_2_23_2: +1 u_2_23_2 -1 y_2_2 <= +0
 u_le_mode_2_23_2: +1 u_2_23_2 -1 mode_2_23 <= +0
 u_ge_and_2_23_2: +1 u_2_23_2 -1 y_2_2 -1 mode_2_23 >= -1
 u_le_y_2_23_3: +1 u_2_23_3 -1 y_2_3 <= +0
 u_le_mode_2_23_3: +1 u_2_23_3 -1 mode_2_23 <= +0
 u_ge_and_2_23_3: +1 u_2_23_3 -1 y_2_3 -1 mode_2_23 >= -1
 u_le_y_2_23_4: +1 u_2_23_4 -1 y_2_4 <= +0
 u_le_mode_2_23_4: +1 u_2_23_4 -1 mode_2_23 <= +0
 u_ge_and_2_23_4: +1 u_2_23_4 -1 y_2_4 -1 mode_2_23 >= -1
 u_le_y_2_23_5: +1 u_2_23_5 -1 y_2_5 <= +0
 u_le_mode_2_23_5: +1 u_2_23_5 -1 mode_2_23 <= +0
 u_ge_and_2_23_5: +1 u_2_23_5 -1 y_2_5 -1 mode_2_23 >= -1
 u_le_y_2_23_6: +1 u_2_23_6 -1 y_2_6 <= +0
 u_le_mode_2_23_6: +1 u_2_23_6 -1 mode_2_23 <= +0
 u_ge_and_2_23_6: +1 u_2_23_6 -1 y_2_6 -1 mode_2_23 >= -1
 u_le_y_2_23_7: +1 u_2_23_7 -1 y_2_7 <= +0
 u_le_mode_2_23_7: +1 u_2_23_7 -1 mode_2_23 <= +0
 u_ge_and_2_23_7: +1 u_2_23_7 -1 y_2_7 -1 mode_2_23 >= -1
 u_le_y_2_23_8: +1 u_2_23_8 -1 y_2_8 <= +0
 u_le_mode_2_23_8: +1 u_2_23_8 -1 mode_2_23 <= +0
 u_ge_and_2_23_8: +1 u_2_23_8 -1 y_2_8 -1 mode_2_23 >= -1
 u_le_y_2_23_9: +1 u_2_23_9 -1 y_2_9 <= +0
 u_le_mode_2_23_9: +1 u_2_23_9 -1 mode_2_23 <= +0
 u_ge_and_2_23_9: +1 u_2_23_9 -1 y_2_9 -1 mode_2_23 >= -1
 u_le_y_2_23_10: +1 u_2_23_10 -1 y_2_10 <= +0
 u_le_mode_2_23_10: +1 u_2_23_10 -1 mode_2_23 <= +0
 u_ge_and_2_23_10: +1 u_2_23_10 -1 y_2_10 -1 mode_2_23 >= -1
 u_le_y_2_24_1: +1 u_2_24_1 -1 y_2_1 <= +0
 u_le_mode_2_24_1: +1 u_2_24_1 -1 mode_2_24 <= +0
 u_ge_and_2_24_1: +1 u_2_24_1 -1 y_2_1 -1 mode_2_24 >= -1
 u_le_y_2_24_2: +1 u_2_24_2 -1 y_2_2 <= +0
 u_le_mode_2_24_2: +1 u_2_24_2 -1 mode_2_24 <= +0
 u_ge_and_2_24_2: +1 u_2_24_2 -1 y_2_2 -1 mode_2_24 >= -1
 u_le_y_2_24_3: +1 u_2_24_3 -1 y_2_3 <= +0
 u_le_mode_2_24_3: +1 u_2_24_3 -1 mode_2_24 <= +0
 u_ge_and_2_24_3: +1 u_2_24_3 -1 y_2_3 -1 mode_2_24 >= -1
 u_le_y_2_24_4: +1 u_2_24_4 -1 y_2_4 <= +0
 u_le_mode_2_24_4: +1 u_2_24_4 -1 mode_2_24 <= +0
 u_ge_and_2_24_4: +1 u_2_24_4 -1 y_2_4 -1 mode_2_24 >= -1
 u_le_y_2_24_5: +1 u_2_24_5 -1 y_2_5 <= +0
 u_le_mode_2_24_5: +1 u_2_24_5 -1 mode_2_24 <= +0
 u_ge_and_2_24_5: +1 u_2_24_5 -1 y_2_5 -1 mode_2_24 >= -1
 u_le_y_2_24_6: +1 u_2_24_6 -1 y_2_6 <= +0
 u_le_mode_2_24_6: +1 u_2_24_6 -1 mode_2_24 <= +0
 u_ge_and_2_24_6: +1 u_2_24_6 -1 y_2_6 -1 mode_2_24 >= -1
 u_le_y_2_24_7: +1 u_2_24_7 -1 y_2_7 <= +0
 u_le_mode_2_24_7: +1 u_2_24_7 -1 mode_2_24 <= +0
 u_ge_and_2_24_7: +1 u_2_24_7 -1 y_2_7 -1 mode_2_24 >= -1
 u_le_y_2_24_8: +1 u_2_24_8 -1 y_2_8 <= +0
 u_le_mode_2_24_8: +1 u_2_24_8 -1 mode_2_24 <= +0
 u_ge_and_2_24_8: +1 u_2_24_8 -1 y_2_8 -1 mode_2_24 >= -1
 u_le_y_2_24_9: +1 u_2_24_9 -1 y_2_9 <= +0
 u_le_mode_2_24_9: +1 u_2_24_9 -1 mode_2_24 <= +0
 u_ge_and_2_24_9: +1 u_2_24_9 -1 y_2_9 -1 mode_2_24 >= -1
 u_le_y_2_24_10: +1 u_2_24_10 -1 y_2_10 <= +0
 u_le_mode_2_24_10: +1 u_2_24_10 -1 mode_2_24 <= +0
 u_ge_and_2_24_10: +1 u_2_24_10 -1 y_2_10 -1 mode_2_24 >= -1
 u_le_y_2_25_1: +1 u_2_25_1 -1 y_2_1 <= +0
 u_le_mode_2_25_1: +1 u_2_25_1 -1 mode_2_25 <= +0
 u_ge_and_2_25_1: +1 u_2_25_1 -1 y_2_1 -1 mode_2_25 >= -1
 u_le_y_2_25_2: +1 u_2_25_2 -1 y_2_2 <= +0
 u_le_mode_2_25_2: +1 u_2_25_2 -1 mode_2_25 <= +0
 u_ge_and_2_25_2: +1 u_2_25_2 -1 y_2_2 -1 mode_2_25 >= -1
 u_le_y_2_25_3: +1 u_2_25_3 -1 y_2_3 <= +0
 u_le_mode_2_25_3: +1 u_2_25_3 -1 mode_2_25 <= +0
 u_ge_and_2_25_3: +1 u_2_25_3 -1 y_2_3 -1 mode_2_25 >= -1
 u_le_y_2_25_4: +1 u_2_25_4 -1 y_2_4 <= +0
 u_le_mode_2_25_4: +1 u_2_25_4 -1 mode_2_25 <= +0
 u_ge_and_2_25_4: +1 u_2_25_4 -1 y_2_4 -1 mode_2_25 >= -1
 u_le_y_2_25_5: +1 u_2_25_5 -1 y_2_5 <= +0
 u_le_mode_2_25_5: +1 u_2_25_5 -1 mode_2_25 <= +0
 u_ge_and_2_25_5: +1 u_2_25_5 -1 y_2_5 -1 mode_2_25 >= -1
 u_le_y_2_25_6: +1 u_2_25_6 -1 y_2_6 <= +0
 u_le_mode_2_25_6: +1 u_2_25_6 -1 mode_2_25 <= +0
 u_ge_and_2_25_6: +1 u_2_25_6 -1 y_2_6 -1 mode_2_25 >= -1
 u_le_y_2_25_7: +1 u_2_25_7 -1 y_2_7 <= +0
 u_le_mode_2_25_7: +1 u_2_25_7 -1 mode_2_25 <= +0
 u_ge_and_2_25_7: +1 u_2_25_7 -1 y_2_7 -1 mode_2_25 >= -1
 u_le_y_2_25_8: +1 u_2_25_8 -1 y_2_8 <= +0
 u_le_mode_2_25_8: +1 u_2_25_8 -1 mode_2_25 <= +0
 u_ge_and_2_25_8: +1 u_2_25_8 -1 y_2_8 -1 mode_2_25 >= -1
 u_le_y_2_25_9: +1 u_2_25_9 -1 y_2_9 <= +0
 u_le_mode_2_25_9: +1 u_2_25_9 -1 mode_2_25 <= +0
 u_ge_and_2_25_9: +1 u_2_25_9 -1 y_2_9 -1 mode_2_25 >= -1
 u_le_y_2_25_10: +1 u_2_25_10 -1 y_2_10 <= +0
 u_le_mode_2_25_10: +1 u_2_25_10 -1 mode_2_25 <= +0
 u_ge_and_2_25_10: +1 u_2_25_10 -1 y_2_10 -1 mode_2_25 >= -1
 u_le_y_2_26_1: +1 u_2_26_1 -1 y_2_1 <= +0
 u_le_mode_2_26_1: +1 u_2_26_1 -1 mode_2_26 <= +0
 u_ge_and_2_26_1: +1 u_2_26_1 -1 y_2_1 -1 mode_2_26 >= -1
 u_le_y_2_26_2: +1 u_2_26_2 -1 y_2_2 <= +0
 u_le_mode_2_26_2: +1 u_2_26_2 -1 mode_2_26 <= +0
 u_ge_and_2_26_2: +1 u_2_26_2 -1 y_2_2 -1 mode_2_26 >= -1
 u_le_y_2_26_3: +1 u_2_26_3 -1 y_2_3 <= +0
 u_le_mode_2_26_3: +1 u_2_26_3 -1 mode_2_26 <= +0
 u_ge_and_2_26_3: +1 u_2_26_3 -1 y_2_3 -1 mode_2_26 >= -1
 u_le_y_2_26_4: +1 u_2_26_4 -1 y_2_4 <= +0
 u_le_mode_2_26_4: +1 u_2_26_4 -1 mode_2_26 <= +0
 u_ge_and_2_26_4: +1 u_2_26_4 -1 y_2_4 -1 mode_2_26 >= -1
 u_le_y_2_26_5: +1 u_2_26_5 -1 y_2_5 <= +0
 u_le_mode_2_26_5: +1 u_2_26_5 -1 mode_2_26 <= +0
 u_ge_and_2_26_5: +1 u_2_26_5 -1 y_2_5 -1 mode_2_26 >= -1
 u_le_y_2_26_6: +1 u_2_26_6 -1 y_2_6 <= +0
 u_le_mode_2_26_6: +1 u_2_26_6 -1 mode_2_26 <= +0
 u_ge_and_2_26_6: +1 u_2_26_6 -1 y_2_6 -1 mode_2_26 >= -1
 u_le_y_2_26_7: +1 u_2_26_7 -1 y_2_7 <= +0
 u_le_mode_2_26_7: +1 u_2_26_7 -1 mode_2_26 <= +0
 u_ge_and_2_26_7: +1 u_2_26_7 -1 y_2_7 -1 mode_2_26 >= -1
 u_le_y_2_26_8: +1 u_2_26_8 -1 y_2_8 <= +0
 u_le_mode_2_26_8: +1 u_2_26_8 -1 mode_2_26 <= +0
 u_ge_and_2_26_8: +1 u_2_26_8 -1 y_2_8 -1 mode_2_26 >= -1
 u_le_y_2_26_9: +1 u_2_26_9 -1 y_2_9 <= +0
 u_le_mode_2_26_9: +1 u_2_26_9 -1 mode_2_26 <= +0
 u_ge_and_2_26_9: +1 u_2_26_9 -1 y_2_9 -1 mode_2_26 >= -1
 u_le_y_2_26_10: +1 u_2_26_10 -1 y_2_10 <= +0
 u_le_mode_2_26_10: +1 u_2_26_10 -1 mode_2_26 <= +0
 u_ge_and_2_26_10: +1 u_2_26_10 -1 y_2_10 -1 mode_2_26 >= -1
 u_le_y_2_27_1: +1 u_2_27_1 -1 y_2_1 <= +0
 u_le_mode_2_27_1: +1 u_2_27_1 -1 mode_2_27 <= +0
 u_ge_and_2_27_1: +1 u_2_27_1 -1 y_2_1 -1 mode_2_27 >= -1
 u_le_y_2_27_2: +1 u_2_27_2 -1 y_2_2 <= +0
 u_le_mode_2_27_2: +1 u_2_27_2 -1 mode_2_27 <= +0
 u_ge_and_2_27_2: +1 u_2_27_2 -1 y_2_2 -1 mode_2_27 >= -1
 u_le_y_2_27_3: +1 u_2_27_3 -1 y_2_3 <= +0
 u_le_mode_2_27_3: +1 u_2_27_3 -1 mode_2_27 <= +0
 u_ge_and_2_27_3: +1 u_2_27_3 -1 y_2_3 -1 mode_2_27 >= -1
 u_le_y_2_27_4: +1 u_2_27_4 -1 y_2_4 <= +0
 u_le_mode_2_27_4: +1 u_2_27_4 -1 mode_2_27 <= +0
 u_ge_and_2_27_4: +1 u_2_27_4 -1 y_2_4 -1 mode_2_27 >= -1
 u_le_y_2_27_5: +1 u_2_27_5 -1 y_2_5 <= +0
 u_le_mode_2_27_5: +1 u_2_27_5 -1 mode_2_27 <= +0
 u_ge_and_2_27_5: +1 u_2_27_5 -1 y_2_5 -1 mode_2_27 >= -1
 u_le_y_2_27_6: +1 u_2_27_6 -1 y_2_6 <= +0
 u_le_mode_2_27_6: +1 u_2_27_6 -1 mode_2_27 <= +0
 u_ge_and_2_27_6: +1 u_2_27_6 -1 y_2_6 -1 mode_2_27 >= -1
 u_le_y_2_27_7: +1 u_2_27_7 -1 y_2_7 <= +0
 u_le_mode_2_27_7: +1 u_2_27_7 -1 mode_2_27 <= +0
 u_ge_and_2_27_7: +1 u_2_27_7 -1 y_2_7 -1 mode_2_27 >= -1
 u_le_y_2_27_8: +1 u_2_27_8 -1 y_2_8 <= +0
 u_le_mode_2_27_8: +1 u_2_27_8 -1 mode_2_27 <= +0
 u_ge_and_2_27_8: +1 u_2_27_8 -1 y_2_8 -1 mode_2_27 >= -1
 u_le_y_2_27_9: +1 u_2_27_9 -1 y_2_9 <= +0
 u_le_mode_2_27_9: +1 u_2_27_9 -1 mode_2_27 <= +0
 u_ge_and_2_27_9: +1 u_2_27_9 -1 y_2_9 -1 mode_2_27 >= -1
 u_le_y_2_27_10: +1 u_2_27_10 -1 y_2_10 <= +0
 u_le_mode_2_27_10: +1 u_2_27_10 -1 mode_2_27 <= +0
 u_ge_and_2_27_10: +1 u_2_27_10 -1 y_2_10 -1 mode_2_27 >= -1
 u_le_y_2_28_1: +1 u_2_28_1 -1 y_2_1 <= +0
 u_le_mode_2_28_1: +1 u_2_28_1 -1 mode_2_28 <= +0
 u_ge_and_2_28_1: +1 u_2_28_1 -1 y_2_1 -1 mode_2_28 >= -1
 u_le_y_2_28_2: +1 u_2_28_2 -1 y_2_2 <= +0
 u_le_mode_2_28_2: +1 u_2_28_2 -1 mode_2_28 <= +0
 u_ge_and_2_28_2: +1 u_2_28_2 -1 y_2_2 -1 mode_2_28 >= -1
 u_le_y_2_28_3: +1 u_2_28_3 -1 y_2_3 <= +0
 u_le_mode_2_28_3: +1 u_2_28_3 -1 mode_2_28 <= +0
 u_ge_and_2_28_3: +1 u_2_28_3 -1 y_2_3 -1 mode_2_28 >= -1
 u_le_y_2_28_4: +1 u_2_28_4 -1 y_2_4 <= +0
 u_le_mode_2_28_4: +1 u_2_28_4 -1 mode_2_28 <= +0
 u_ge_and_2_28_4: +1 u_2_28_4 -1 y_2_4 -1 mode_2_28 >= -1
 u_le_y_2_28_5: +1 u_2_28_5 -1 y_2_5 <= +0
 u_le_mode_2_28_5: +1 u_2_28_5 -1 mode_2_28 <= +0
 u_ge_and_2_28_5: +1 u_2_28_5 -1 y_2_5 -1 mode_2_28 >= -1
 u_le_y_2_28_6: +1 u_2_28_6 -1 y_2_6 <= +0
 u_le_mode_2_28_6: +1 u_2_28_6 -1 mode_2_28 <= +0
 u_ge_and_2_28_6: +1 u_2_28_6 -1 y_2_6 -1 mode_2_28 >= -1
 u_le_y_2_28_7: +1 u_2_28_7 -1 y_2_7 <= +0
 u_le_mode_2_28_7: +1 u_2_28_7 -1 mode_2_28 <= +0
 u_ge_and_2_28_7: +1 u_2_28_7 -1 y_2_7 -1 mode_2_28 >= -1
 u_le_y_2_28_8: +1 u_2_28_8 -1 y_2_8 <= +0
 u_le_mode_2_28_8: +1 u_2_28_8 -1 mode_2_28 <= +0
 u_ge_and_2_28_8: +1 u_2_28_8 -1 y_2_8 -1 mode_2_28 >= -1
 u_le_y_2_28_9: +1 u_2_28_9 -1 y_2_9 <= +0
 u_le_mode_2_28_9: +1 u_2_28_9 -1 mode_2_28 <= +0
 u_ge_and_2_28_9: +1 u_2_28_9 -1 y_2_9 -1 mode_2_28 >= -1
 u_le_y_2_28_10: +1 u_2_28_10 -1 y_2_10 <= +0
 u_le_mode_2_28_10: +1 u_2_28_10 -1 mode_2_28 <= +0
 u_ge_and_2_28_10: +1 u_2_28_10 -1 y_2_10 -1 mode_2_28 >= -1
 u_le_y_2_29_1: +1 u_2_29_1 -1 y_2_1 <= +0
 u_le_mode_2_29_1: +1 u_2_29_1 -1 mode_2_29 <= +0
 u_ge_and_2_29_1: +1 u_2_29_1 -1 y_2_1 -1 mode_2_29 >= -1
 u_le_y_2_29_2: +1 u_2_29_2 -1 y_2_2 <= +0
 u_le_mode_2_29_2: +1 u_2_29_2 -1 mode_2_29 <= +0
 u_ge_and_2_29_2: +1 u_2_29_2 -1 y_2_2 -1 mode_2_29 >= -1
 u_le_y_2_29_3: +1 u_2_29_3 -1 y_2_3 <= +0
 u_le_mode_2_29_3: +1 u_2_29_3 -1 mode_2_29 <= +0
 u_ge_and_2_29_3: +1 u_2_29_3 -1 y_2_3 -1 mode_2_29 >= -1
 u_le_y_2_29_4: +1 u_2_29_4 -1 y_2_4 <= +0
 u_le_mode_2_29_4: +1 u_2_29_4 -1 mode_2_29 <= +0
 u_ge_and_2_29_4: +1 u_2_29_4 -1 y_2_4 -1 mode_2_29 >= -1
 u_le_y_2_29_5: +1 u_2_29_5 -1 y_2_5 <= +0
 u_le_mode_2_29_5: +1 u_2_29_5 -1 mode_2_29 <= +0
 u_ge_and_2_29_5: +1 u_2_29_5 -1 y_2_5 -1 mode_2_29 >= -1
 u_le_y_2_29_6: +1 u_2_29_6 -1 y_2_6 <= +0
 u_le_mode_2_29_6: +1 u_2_29_6 -1 mode_2_29 <= +0
 u_ge_and_2_29_6: +1 u_2_29_6 -1 y_2_6 -1 mode_2_29 >= -1
 u_le_y_2_29_7: +1 u_2_29_7 -1 y_2_7 <= +0
 u_le_mode_2_29_7: +1 u_2_29_7 -1 mode_2_29 <= +0
 u_ge_and_2_29_7: +1 u_2_29_7 -1 y_2_7 -1 mode_2_29 >= -1
 u_le_y_2_29_8: +1 u_2_29_8 -1 y_2_8 <= +0
 u_le_mode_2_29_8: +1 u_2_29_8 -1 mode_2_29 <= +0
 u_ge_and_2_29_8: +1 u_2_29_8 -1 y_2_8 -1 mode_2_29 >= -1
 u_le_y_2_29_9: +1 u_2_29_9 -1 y_2_9 <= +0
 u_le_mode_2_29_9: +1 u_2_29_9 -1 mode_2_29 <= +0
 u_ge_and_2_29_9: +1 u_2_29_9 -1 y_2_9 -1 mode_2_29 >= -1
 u_le_y_2_29_10: +1 u_2_29_10 -1 y_2_10 <= +0
 u_le_mode_2_29_10: +1 u_2_29_10 -1 mode_2_29 <= +0
 u_ge_and_2_29_10: +1 u_2_29_10 -1 y_2_10 -1 mode_2_29 >= -1
 u_le_y_2_30_1: +1 u_2_30_1 -1 y_2_1 <= +0
 u_le_mode_2_30_1: +1 u_2_30_1 -1 mode_2_30 <= +0
 u_ge_and_2_30_1: +1 u_2_30_1 -1 y_2_1 -1 mode_2_30 >= -1
 u_le_y_2_30_2: +1 u_2_30_2 -1 y_2_2 <= +0
 u_le_mode_2_30_2: +1 u_2_30_2 -1 mode_2_30 <= +0
 u_ge_and_2_30_2: +1 u_2_30_2 -1 y_2_2 -1 mode_2_30 >= -1
 u_le_y_2_30_3: +1 u_2_30_3 -1 y_2_3 <= +0
 u_le_mode_2_30_3: +1 u_2_30_3 -1 mode_2_30 <= +0
 u_ge_and_2_30_3: +1 u_2_30_3 -1 y_2_3 -1 mode_2_30 >= -1
 u_le_y_2_30_4: +1 u_2_30_4 -1 y_2_4 <= +0
 u_le_mode_2_30_4: +1 u_2_30_4 -1 mode_2_30 <= +0
 u_ge_and_2_30_4: +1 u_2_30_4 -1 y_2_4 -1 mode_2_30 >= -1
 u_le_y_2_30_5: +1 u_2_30_5 -1 y_2_5 <= +0
 u_le_mode_2_30_5: +1 u_2_30_5 -1 mode_2_30 <= +0
 u_ge_and_2_30_5: +1 u_2_30_5 -1 y_2_5 -1 mode_2_30 >= -1
 u_le_y_2_30_6: +1 u_2_30_6 -1 y_2_6 <= +0
 u_le_mode_2_30_6: +1 u_2_30_6 -1 mode_2_30 <= +0
 u_ge_and_2_30_6: +1 u_2_30_6 -1 y_2_6 -1 mode_2_30 >= -1
 u_le_y_2_30_7: +1 u_2_30_7 -1 y_2_7 <= +0
 u_le_mode_2_30_7: +1 u_2_30_7 -1 mode_2_30 <= +0
 u_ge_and_2_30_7: +1 u_2_30_7 -1 y_2_7 -1 mode_2_30 >= -1
 u_le_y_2_30_8: +1 u_2_30_8 -1 y_2_8 <= +0
 u_le_mode_2_30_8: +1 u_2_30_8 -1 mode_2_30 <= +0
 u_ge_and_2_30_8: +1 u_2_30_8 -1 y_2_8 -1 mode_2_30 >= -1
 u_le_y_2_30_9: +1 u_2_30_9 -1 y_2_9 <= +0
 u_le_mode_2_30_9: +1 u_2_30_9 -1 mode_2_30 <= +0
 u_ge_and_2_30_9: +1 u_2_30_9 -1 y_2_9 -1 mode_2_30 >= -1
 u_le_y_2_30_10: +1 u_2_30_10 -1 y_2_10 <= +0
 u_le_mode_2_30_10: +1 u_2_30_10 -1 mode_2_30 <= +0
 u_ge_and_2_30_10: +1 u_2_30_10 -1 y_2_10 -1 mode_2_30 >= -1
 u_le_y_2_31_1: +1 u_2_31_1 -1 y_2_1 <= +0
 u_le_mode_2_31_1: +1 u_2_31_1 -1 mode_2_31 <= +0
 u_ge_and_2_31_1: +1 u_2_31_1 -1 y_2_1 -1 mode_2_31 >= -1
 u_le_y_2_31_2: +1 u_2_31_2 -1 y_2_2 <= +0
 u_le_mode_2_31_2: +1 u_2_31_2 -1 mode_2_31 <= +0
 u_ge_and_2_31_2: +1 u_2_31_2 -1 y_2_2 -1 mode_2_31 >= -1
 u_le_y_2_31_3: +1 u_2_31_3 -1 y_2_3 <= +0
 u_le_mode_2_31_3: +1 u_2_31_3 -1 mode_2_31 <= +0
 u_ge_and_2_31_3: +1 u_2_31_3 -1 y_2_3 -1 mode_2_31 >= -1
 u_le_y_2_31_4: +1 u_2_31_4 -1 y_2_4 <= +0
 u_le_mode_2_31_4: +1 u_2_31_4 -1 mode_2_31 <= +0
 u_ge_and_2_31_4: +1 u_2_31_4 -1 y_2_4 -1 mode_2_31 >= -1
 u_le_y_2_31_5: +1 u_2_31_5 -1 y_2_5 <= +0
 u_le_mode_2_31_5: +1 u_2_31_5 -1 mode_2_31 <= +0
 u_ge_and_2_31_5: +1 u_2_31_5 -1 y_2_5 -1 mode_2_31 >= -1
 u_le_y_2_31_6: +1 u_2_31_6 -1 y_2_6 <= +0
 u_le_mode_2_31_6: +1 u_2_31_6 -1 mode_2_31 <= +0
 u_ge_and_2_31_6: +1 u_2_31_6 -1 y_2_6 -1 mode_2_31 >= -1
 u_le_y_2_31_7: +1 u_2_31_7 -1 y_2_7 <= +0
 u_le_mode_2_31_7: +1 u_2_31_7 -1 mode_2_31 <= +0
 u_ge_and_2_31_7: +1 u_2_31_7 -1 y_2_7 -1 mode_2_31 >= -1
 u_le_y_2_31_8: +1 u_2_31_8 -1 y_2_8 <= +0
 u_le_mode_2_31_8: +1 u_2_31_8 -1 mode_2_31 <= +0
 u_ge_and_2_31_8: +1 u_2_31_8 -1 y_2_8 -1 mode_2_31 >= -1
 u_le_y_2_31_9: +1 u_2_31_9 -1 y_2_9 <= +0
 u_le_mode_2_31_9: +1 u_2_31_9 -1 mode_2_31 <= +0
 u_ge_and_2_31_9: +1 u_2_31_9 -1 y_2_9 -1 mode_2_31 >= -1
 u_le_y_2_31_10: +1 u_2_31_10 -1 y_2_10 <= +0
 u_le_mode_2_31_10: +1 u_2_31_10 -1 mode_2_31 <= +0
 u_ge_and_2_31_10: +1 u_2_31_10 -1 y_2_10 -1 mode_2_31 >= -1
 u_le_y_2_32_1: +1 u_2_32_1 -1 y_2_1 <= +0
 u_le_mode_2_32_1: +1 u_2_32_1 -1 mode_2_32 <= +0
 u_ge_and_2_32_1: +1 u_2_32_1 -1 y_2_1 -1 mode_2_32 >= -1
 u_le_y_2_32_2: +1 u_2_32_2 -1 y_2_2 <= +0
 u_le_mode_2_32_2: +1 u_2_32_2 -1 mode_2_32 <= +0
 u_ge_and_2_32_2: +1 u_2_32_2 -1 y_2_2 -1 mode_2_32 >= -1
 u_le_y_2_32_3: +1 u_2_32_3 -1 y_2_3 <= +0
 u_le_mode_2_32_3: +1 u_2_32_3 -1 mode_2_32 <= +0
 u_ge_and_2_32_3: +1 u_2_32_3 -1 y_2_3 -1 mode_2_32 >= -1
 u_le_y_2_32_4: +1 u_2_32_4 -1 y_2_4 <= +0
 u_le_mode_2_32_4: +1 u_2_32_4 -1 mode_2_32 <= +0
 u_ge_and_2_32_4: +1 u_2_32_4 -1 y_2_4 -1 mode_2_32 >= -1
 u_le_y_2_32_5: +1 u_2_32_5 -1 y_2_5 <= +0
 u_le_mode_2_32_5: +1 u_2_32_5 -1 mode_2_32 <= +0
 u_ge_and_2_32_5: +1 u_2_32_5 -1 y_2_5 -1 mode_2_32 >= -1
 u_le_y_2_32_6: +1 u_2_32_6 -1 y_2_6 <= +0
 u_le_mode_2_32_6: +1 u_2_32_6 -1 mode_2_32 <= +0
 u_ge_and_2_32_6: +1 u_2_32_6 -1 y_2_6 -1 mode_2_32 >= -1
 u_le_y_2_32_7: +1 u_2_32_7 -1 y_2_7 <= +0
 u_le_mode_2_32_7: +1 u_2_32_7 -1 mode_2_32 <= +0
 u_ge_and_2_32_7: +1 u_2_32_7 -1 y_2_7 -1 mode_2_32 >= -1
 u_le_y_2_32_8: +1 u_2_32_8 -1 y_2_8 <= +0
 u_le_mode_2_32_8: +1 u_2_32_8 -1 mode_2_32 <= +0
 u_ge_and_2_32_8: +1 u_2_32_8 -1 y_2_8 -1 mode_2_32 >= -1
 u_le_y_2_32_9: +1 u_2_32_9 -1 y_2_9 <= +0
 u_le_mode_2_32_9: +1 u_2_32_9 -1 mode_2_32 <= +0
 u_ge_and_2_32_9: +1 u_2_32_9 -1 y_2_9 -1 mode_2_32 >= -1
 u_le_y_2_32_10: +1 u_2_32_10 -1 y_2_10 <= +0
 u_le_mode_2_32_10: +1 u_2_32_10 -1 mode_2_32 <= +0
 u_ge_and_2_32_10: +1 u_2_32_10 -1 y_2_10 -1 mode_2_32 >= -1
 u_le_y_2_33_1: +1 u_2_33_1 -1 y_2_1 <= +0
 u_le_mode_2_33_1: +1 u_2_33_1 -1 mode_2_33 <= +0
 u_ge_and_2_33_1: +1 u_2_33_1 -1 y_2_1 -1 mode_2_33 >= -1
 u_le_y_2_33_2: +1 u_2_33_2 -1 y_2_2 <= +0
 u_le_mode_2_33_2: +1 u_2_33_2 -1 mode_2_33 <= +0
 u_ge_and_2_33_2: +1 u_2_33_2 -1 y_2_2 -1 mode_2_33 >= -1
 u_le_y_2_33_3: +1 u_2_33_3 -1 y_2_3 <= +0
 u_le_mode_2_33_3: +1 u_2_33_3 -1 mode_2_33 <= +0
 u_ge_and_2_33_3: +1 u_2_33_3 -1 y_2_3 -1 mode_2_33 >= -1
 u_le_y_2_33_4: +1 u_2_33_4 -1 y_2_4 <= +0
 u_le_mode_2_33_4: +1 u_2_33_4 -1 mode_2_33 <= +0
 u_ge_and_2_33_4: +1 u_2_33_4 -1 y_2_4 -1 mode_2_33 >= -1
 u_le_y_2_33_5: +1 u_2_33_5 -1 y_2_5 <= +0
 u_le_mode_2_33_5: +1 u_2_33_5 -1 mode_2_33 <= +0
 u_ge_and_2_33_5: +1 u_2_33_5 -1 y_2_5 -1 mode_2_33 >= -1
 u_le_y_2_33_6: +1 u_2_33_6 -1 y_2_6 <= +0
 u_le_mode_2_33_6: +1 u_2_33_6 -1 mode_2_33 <= +0
 u_ge_and_2_33_6: +1 u_2_33_6 -1 y_2_6 -1 mode_2_33 >= -1
 u_le_y_2_33_7: +1 u_2_33_7 -1 y_2_7 <= +0
 u_le_mode_2_33_7: +1 u_2_33_7 -1 mode_2_33 <= +0
 u_ge_and_2_33_7: +1 u_2_33_7 -1 y_2_7 -1 mode_2_33 >= -1
 u_le_y_2_33_8: +1 u_2_33_8 -1 y_2_8 <= +0
 u_le_mode_2_33_8: +1 u_2_33_8 -1 mode_2_33 <= +0
 u_ge_and_2_33_8: +1 u_2_33_8 -1 y_2_8 -1 mode_2_33 >= -1
 u_le_y_2_33_9: +1 u_2_33_9 -1 y_2_9 <= +0
 u_le_mode_2_33_9: +1 u_2_33_9 -1 mode_2_33 <= +0
 u_ge_and_2_33_9: +1 u_2_33_9 -1 y_2_9 -1 mode_2_33 >= -1
 u_le_y_2_33_10: +1 u_2_33_10 -1 y_2_10 <= +0
 u_le_mode_2_33_10: +1 u_2_33_10 -1 mode_2_33 <= +0
 u_ge_and_2_33_10: +1 u_2_33_10 -1 y_2_10 -1 mode_2_33 >= -1
 u_le_y_2_34_1: +1 u_2_34_1 -1 y_2_1 <= +0
 u_le_mode_2_34_1: +1 u_2_34_1 -1 mode_2_34 <= +0
 u_ge_and_2_34_1: +1 u_2_34_1 -1 y_2_1 -1 mode_2_34 >= -1
 u_le_y_2_34_2: +1 u_2_34_2 -1 y_2_2 <= +0
 u_le_mode_2_34_2: +1 u_2_34_2 -1 mode_2_34 <= +0
 u_ge_and_2_34_2: +1 u_2_34_2 -1 y_2_2 -1 mode_2_34 >= -1
 u_le_y_2_34_3: +1 u_2_34_3 -1 y_2_3 <= +0
 u_le_mode_2_34_3: +1 u_2_34_3 -1 mode_2_34 <= +0
 u_ge_and_2_34_3: +1 u_2_34_3 -1 y_2_3 -1 mode_2_34 >= -1
 u_le_y_2_34_4: +1 u_2_34_4 -1 y_2_4 <= +0
 u_le_mode_2_34_4: +1 u_2_34_4 -1 mode_2_34 <= +0
 u_ge_and_2_34_4: +1 u_2_34_4 -1 y_2_4 -1 mode_2_34 >= -1
 u_le_y_2_34_5: +1 u_2_34_5 -1 y_2_5 <= +0
 u_le_mode_2_34_5: +1 u_2_34_5 -1 mode_2_34 <= +0
 u_ge_and_2_34_5: +1 u_2_34_5 -1 y_2_5 -1 mode_2_34 >= -1
 u_le_y_2_34_6: +1 u_2_34_6 -1 y_2_6 <= +0
 u_le_mode_2_34_6: +1 u_2_34_6 -1 mode_2_34 <= +0
 u_ge_and_2_34_6: +1 u_2_34_6 -1 y_2_6 -1 mode_2_34 >= -1
 u_le_y_2_34_7: +1 u_2_34_7 -1 y_2_7 <= +0
 u_le_mode_2_34_7: +1 u_2_34_7 -1 mode_2_34 <= +0
 u_ge_and_2_34_7: +1 u_2_34_7 -1 y_2_7 -1 mode_2_34 >= -1
 u_le_y_2_34_8: +1 u_2_34_8 -1 y_2_8 <= +0
 u_le_mode_2_34_8: +1 u_2_34_8 -1 mode_2_34 <= +0
 u_ge_and_2_34_8: +1 u_2_34_8 -1 y_2_8 -1 mode_2_34 >= -1
 u_le_y_2_34_9: +1 u_2_34_9 -1 y_2_9 <= +0
 u_le_mode_2_34_9: +1 u_2_34_9 -1 mode_2_34 <= +0
 u_ge_and_2_34_9: +1 u_2_34_9 -1 y_2_9 -1 mode_2_34 >= -1
 u_le_y_2_34_10: +1 u_2_34_10 -1 y_2_10 <= +0
 u_le_mode_2_34_10: +1 u_2_34_10 -1 mode_2_34 <= +0
 u_ge_and_2_34_10: +1 u_2_34_10 -1 y_2_10 -1 mode_2_34 >= -1
 u_le_y_2_35_1: +1 u_2_35_1 -1 y_2_1 <= +0
 u_le_mode_2_35_1: +1 u_2_35_1 -1 mode_2_35 <= +0
 u_ge_and_2_35_1: +1 u_2_35_1 -1 y_2_1 -1 mode_2_35 >= -1
 u_le_y_2_35_2: +1 u_2_35_2 -1 y_2_2 <= +0
 u_le_mode_2_35_2: +1 u_2_35_2 -1 mode_2_35 <= +0
 u_ge_and_2_35_2: +1 u_2_35_2 -1 y_2_2 -1 mode_2_35 >= -1
 u_le_y_2_35_3: +1 u_2_35_3 -1 y_2_3 <= +0
 u_le_mode_2_35_3: +1 u_2_35_3 -1 mode_2_35 <= +0
 u_ge_and_2_35_3: +1 u_2_35_3 -1 y_2_3 -1 mode_2_35 >= -1
 u_le_y_2_35_4: +1 u_2_35_4 -1 y_2_4 <= +0
 u_le_mode_2_35_4: +1 u_2_35_4 -1 mode_2_35 <= +0
 u_ge_and_2_35_4: +1 u_2_35_4 -1 y_2_4 -1 mode_2_35 >= -1
 u_le_y_2_35_5: +1 u_2_35_5 -1 y_2_5 <= +0
 u_le_mode_2_35_5: +1 u_2_35_5 -1 mode_2_35 <= +0
 u_ge_and_2_35_5: +1 u_2_35_5 -1 y_2_5 -1 mode_2_35 >= -1
 u_le_y_2_35_6: +1 u_2_35_6 -1 y_2_6 <= +0
 u_le_mode_2_35_6: +1 u_2_35_6 -1 mode_2_35 <= +0
 u_ge_and_2_35_6: +1 u_2_35_6 -1 y_2_6 -1 mode_2_35 >= -1
 u_le_y_2_35_7: +1 u_2_35_7 -1 y_2_7 <= +0
 u_le_mode_2_35_7: +1 u_2_35_7 -1 mode_2_35 <= +0
 u_ge_and_2_35_7: +1 u_2_35_7 -1 y_2_7 -1 mode_2_35 >= -1
 u_le_y_2_35_8: +1 u_2_35_8 -1 y_2_8 <= +0
 u_le_mode_2_35_8: +1 u_2_35_8 -1 mode_2_35 <= +0
 u_ge_and_2_35_8: +1 u_2_35_8 -1 y_2_8 -1 mode_2_35 >= -1
 u_le_y_2_35_9: +1 u_2_35_9 -1 y_2_9 <= +0
 u_le_mode_2_35_9: +1 u_2_35_9 -1 mode_2_35 <= +0
 u_ge_and_2_35_9: +1 u_2_35_9 -1 y_2_9 -1 mode_2_35 >= -1
 u_le_y_2_35_10: +1 u_2_35_10 -1 y_2_10 <= +0
 u_le_mode_2_35_10: +1 u_2_35_10 -1 mode_2_35 <= +0
 u_ge_and_2_35_10: +1 u_2_35_10 -1 y_2_10 -1 mode_2_35 >= -1
 u_le_y_2_36_1: +1 u_2_36_1 -1 y_2_1 <= +0
 u_le_mode_2_36_1: +1 u_2_36_1 -1 mode_2_36 <= +0
 u_ge_and_2_36_1: +1 u_2_36_1 -1 y_2_1 -1 mode_2_36 >= -1
 u_le_y_2_36_2: +1 u_2_36_2 -1 y_2_2 <= +0
 u_le_mode_2_36_2: +1 u_2_36_2 -1 mode_2_36 <= +0
 u_ge_and_2_36_2: +1 u_2_36_2 -1 y_2_2 -1 mode_2_36 >= -1
 u_le_y_2_36_3: +1 u_2_36_3 -1 y_2_3 <= +0
 u_le_mode_2_36_3: +1 u_2_36_3 -1 mode_2_36 <= +0
 u_ge_and_2_36_3: +1 u_2_36_3 -1 y_2_3 -1 mode_2_36 >= -1
 u_le_y_2_36_4: +1 u_2_36_4 -1 y_2_4 <= +0
 u_le_mode_2_36_4: +1 u_2_36_4 -1 mode_2_36 <= +0
 u_ge_and_2_36_4: +1 u_2_36_4 -1 y_2_4 -1 mode_2_36 >= -1
 u_le_y_2_36_5: +1 u_2_36_5 -1 y_2_5 <= +0
 u_le_mode_2_36_5: +1 u_2_36_5 -1 mode_2_36 <= +0
 u_ge_and_2_36_5: +1 u_2_36_5 -1 y_2_5 -1 mode_2_36 >= -1
 u_le_y_2_36_6: +1 u_2_36_6 -1 y_2_6 <= +0
 u_le_mode_2_36_6: +1 u_2_36_6 -1 mode_2_36 <= +0
 u_ge_and_2_36_6: +1 u_2_36_6 -1 y_2_6 -1 mode_2_36 >= -1
 u_le_y_2_36_7: +1 u_2_36_7 -1 y_2_7 <= +0
 u_le_mode_2_36_7: +1 u_2_36_7 -1 mode_2_36 <= +0
 u_ge_and_2_36_7: +1 u_2_36_7 -1 y_2_7 -1 mode_2_36 >= -1
 u_le_y_2_36_8: +1 u_2_36_8 -1 y_2_8 <= +0
 u_le_mode_2_36_8: +1 u_2_36_8 -1 mode_2_36 <= +0
 u_ge_and_2_36_8: +1 u_2_36_8 -1 y_2_8 -1 mode_2_36 >= -1
 u_le_y_2_36_9: +1 u_2_36_9 -1 y_2_9 <= +0
 u_le_mode_2_36_9: +1 u_2_36_9 -1 mode_2_36 <= +0
 u_ge_and_2_36_9: +1 u_2_36_9 -1 y_2_9 -1 mode_2_36 >= -1
 u_le_y_2_36_10: +1 u_2_36_10 -1 y_2_10 <= +0
 u_le_mode_2_36_10: +1 u_2_36_10 -1 mode_2_36 <= +0
 u_ge_and_2_36_10: +1 u_2_36_10 -1 y_2_10 -1 mode_2_36 >= -1
 u_le_y_2_37_1: +1 u_2_37_1 -1 y_2_1 <= +0
 u_le_mode_2_37_1: +1 u_2_37_1 -1 mode_2_37 <= +0
 u_ge_and_2_37_1: +1 u_2_37_1 -1 y_2_1 -1 mode_2_37 >= -1
 u_le_y_2_37_2: +1 u_2_37_2 -1 y_2_2 <= +0
 u_le_mode_2_37_2: +1 u_2_37_2 -1 mode_2_37 <= +0
 u_ge_and_2_37_2: +1 u_2_37_2 -1 y_2_2 -1 mode_2_37 >= -1
 u_le_y_2_37_3: +1 u_2_37_3 -1 y_2_3 <= +0
 u_le_mode_2_37_3: +1 u_2_37_3 -1 mode_2_37 <= +0
 u_ge_and_2_37_3: +1 u_2_37_3 -1 y_2_3 -1 mode_2_37 >= -1
 u_le_y_2_37_4: +1 u_2_37_4 -1 y_2_4 <= +0
 u_le_mode_2_37_4: +1 u_2_37_4 -1 mode_2_37 <= +0
 u_ge_and_2_37_4: +1 u_2_37_4 -1 y_2_4 -1 mode_2_37 >= -1
 u_le_y_2_37_5: +1 u_2_37_5 -1 y_2_5 <= +0
 u_le_mode_2_37_5: +1 u_2_37_5 -1 mode_2_37 <= +0
 u_ge_and_2_37_5: +1 u_2_37_5 -1 y_2_5 -1 mode_2_37 >= -1
 u_le_y_2_37_6: +1 u_2_37_6 -1 y_2_6 <= +0
 u_le_mode_2_37_6: +1 u_2_37_6 -1 mode_2_37 <= +0
 u_ge_and_2_37_6: +1 u_2_37_6 -1 y_2_6 -1 mode_2_37 >= -1
 u_le_y_2_37_7: +1 u_2_37_7 -1 y_2_7 <= +0
 u_le_mode_2_37_7: +1 u_2_37_7 -1 mode_2_37 <= +0
 u_ge_and_2_37_7: +1 u_2_37_7 -1 y_2_7 -1 mode_2_37 >= -1
 u_le_y_2_37_8: +1 u_2_37_8 -1 y_2_8 <= +0
 u_le_mode_2_37_8: +1 u_2_37_8 -1 mode_2_37 <= +0
 u_ge_and_2_37_8: +1 u_2_37_8 -1 y_2_8 -1 mode_2_37 >= -1
 u_le_y_2_37_9: +1 u_2_37_9 -1 y_2_9 <= +0
 u_le_mode_2_37_9: +1 u_2_37_9 -1 mode_2_37 <= +0
 u_ge_and_2_37_9: +1 u_2_37_9 -1 y_2_9 -1 mode_2_37 >= -1
 u_le_y_2_37_10: +1 u_2_37_10 -1 y_2_10 <= +0
 u_le_mode_2_37_10: +1 u_2_37_10 -1 mode_2_37 <= +0
 u_ge_and_2_37_10: +1 u_2_37_10 -1 y_2_10 -1 mode_2_37 >= -1
 u_le_y_2_38_1: +1 u_2_38_1 -1 y_2_1 <= +0
 u_le_mode_2_38_1: +1 u_2_38_1 -1 mode_2_38 <= +0
 u_ge_and_2_38_1: +1 u_2_38_1 -1 y_2_1 -1 mode_2_38 >= -1
 u_le_y_2_38_2: +1 u_2_38_2 -1 y_2_2 <= +0
 u_le_mode_2_38_2: +1 u_2_38_2 -1 mode_2_38 <= +0
 u_ge_and_2_38_2: +1 u_2_38_2 -1 y_2_2 -1 mode_2_38 >= -1
 u_le_y_2_38_3: +1 u_2_38_3 -1 y_2_3 <= +0
 u_le_mode_2_38_3: +1 u_2_38_3 -1 mode_2_38 <= +0
 u_ge_and_2_38_3: +1 u_2_38_3 -1 y_2_3 -1 mode_2_38 >= -1
 u_le_y_2_38_4: +1 u_2_38_4 -1 y_2_4 <= +0
 u_le_mode_2_38_4: +1 u_2_38_4 -1 mode_2_38 <= +0
 u_ge_and_2_38_4: +1 u_2_38_4 -1 y_2_4 -1 mode_2_38 >= -1
 u_le_y_2_38_5: +1 u_2_38_5 -1 y_2_5 <= +0
 u_le_mode_2_38_5: +1 u_2_38_5 -1 mode_2_38 <= +0
 u_ge_and_2_38_5: +1 u_2_38_5 -1 y_2_5 -1 mode_2_38 >= -1
 u_le_y_2_38_6: +1 u_2_38_6 -1 y_2_6 <= +0
 u_le_mode_2_38_6: +1 u_2_38_6 -1 mode_2_38 <= +0
 u_ge_and_2_38_6: +1 u_2_38_6 -1 y_2_6 -1 mode_2_38 >= -1
 u_le_y_2_38_7: +1 u_2_38_7 -1 y_2_7 <= +0
 u_le_mode_2_38_7: +1 u_2_38_7 -1 mode_2_38 <= +0
 u_ge_and_2_38_7: +1 u_2_38_7 -1 y_2_7 -1 mode_2_38 >= -1
 u_le_y_2_38_8: +1 u_2_38_8 -1 y_2_8 <= +0
 u_le_mode_2_38_8: +1 u_2_38_8 -1 mode_2_38 <= +0
 u_ge_and_2_38_8: +1 u_2_38_8 -1 y_2_8 -1 mode_2_38 >= -1
 u_le_y_2_38_9: +1 u_2_38_9 -1 y_2_9 <= +0
 u_le_mode_2_38_9: +1 u_2_38_9 -1 mode_2_38 <= +0
 u_ge_and_2_38_9: +1 u_2_38_9 -1 y_2_9 -1 mode_2_38 >= -1
 u_le_y_2_38_10: +1 u_2_38_10 -1 y_2_10 <= +0
 u_le_mode_2_38_10: +1 u_2_38_10 -1 mode_2_38 <= +0
 u_ge_and_2_38_10: +1 u_2_38_10 -1 y_2_10 -1 mode_2_38 >= -1
 u_le_y_2_39_1: +1 u_2_39_1 -1 y_2_1 <= +0
 u_le_mode_2_39_1: +1 u_2_39_1 -1 mode_2_39 <= +0
 u_ge_and_2_39_1: +1 u_2_39_1 -1 y_2_1 -1 mode_2_39 >= -1
 u_le_y_2_39_2: +1 u_2_39_2 -1 y_2_2 <= +0
 u_le_mode_2_39_2: +1 u_2_39_2 -1 mode_2_39 <= +0
 u_ge_and_2_39_2: +1 u_2_39_2 -1 y_2_2 -1 mode_2_39 >= -1
 u_le_y_2_39_3: +1 u_2_39_3 -1 y_2_3 <= +0
 u_le_mode_2_39_3: +1 u_2_39_3 -1 mode_2_39 <= +0
 u_ge_and_2_39_3: +1 u_2_39_3 -1 y_2_3 -1 mode_2_39 >= -1
 u_le_y_2_39_4: +1 u_2_39_4 -1 y_2_4 <= +0
 u_le_mode_2_39_4: +1 u_2_39_4 -1 mode_2_39 <= +0
 u_ge_and_2_39_4: +1 u_2_39_4 -1 y_2_4 -1 mode_2_39 >= -1
 u_le_y_2_39_5: +1 u_2_39_5 -1 y_2_5 <= +0
 u_le_mode_2_39_5: +1 u_2_39_5 -1 mode_2_39 <= +0
 u_ge_and_2_39_5: +1 u_2_39_5 -1 y_2_5 -1 mode_2_39 >= -1
 u_le_y_2_39_6: +1 u_2_39_6 -1 y_2_6 <= +0
 u_le_mode_2_39_6: +1 u_2_39_6 -1 mode_2_39 <= +0
 u_ge_and_2_39_6: +1 u_2_39_6 -1 y_2_6 -1 mode_2_39 >= -1
 u_le_y_2_39_7: +1 u_2_39_7 -1 y_2_7 <= +0
 u_le_mode_2_39_7: +1 u_2_39_7 -1 mode_2_39 <= +0
 u_ge_and_2_39_7: +1 u_2_39_7 -1 y_2_7 -1 mode_2_39 >= -1
 u_le_y_2_39_8: +1 u_2_39_8 -1 y_2_8 <= +0
 u_le_mode_2_39_8: +1 u_2_39_8 -1 mode_2_39 <= +0
 u_ge_and_2_39_8: +1 u_2_39_8 -1 y_2_8 -1 mode_2_39 >= -1
 u_le_y_2_39_9: +1 u_2_39_9 -1 y_2_9 <= +0
 u_le_mode_2_39_9: +1 u_2_39_9 -1 mode_2_39 <= +0
 u_ge_and_2_39_9: +1 u_2_39_9 -1 y_2_9 -1 mode_2_39 >= -1
 u_le_y_2_39_10: +1 u_2_39_10 -1 y_2_10 <= +0
 u_le_mode_2_39_10: +1 u_2_39_10 -1 mode_2_39 <= +0
 u_ge_and_2_39_10: +1 u_2_39_10 -1 y_2_10 -1 mode_2_39 >= -1
 u_le_y_2_40_1: +1 u_2_40_1 -1 y_2_1 <= +0
 u_le_mode_2_40_1: +1 u_2_40_1 -1 mode_2_40 <= +0
 u_ge_and_2_40_1: +1 u_2_40_1 -1 y_2_1 -1 mode_2_40 >= -1
 u_le_y_2_40_2: +1 u_2_40_2 -1 y_2_2 <= +0
 u_le_mode_2_40_2: +1 u_2_40_2 -1 mode_2_40 <= +0
 u_ge_and_2_40_2: +1 u_2_40_2 -1 y_2_2 -1 mode_2_40 >= -1
 u_le_y_2_40_3: +1 u_2_40_3 -1 y_2_3 <= +0
 u_le_mode_2_40_3: +1 u_2_40_3 -1 mode_2_40 <= +0
 u_ge_and_2_40_3: +1 u_2_40_3 -1 y_2_3 -1 mode_2_40 >= -1
 u_le_y_2_40_4: +1 u_2_40_4 -1 y_2_4 <= +0
 u_le_mode_2_40_4: +1 u_2_40_4 -1 mode_2_40 <= +0
 u_ge_and_2_40_4: +1 u_2_40_4 -1 y_2_4 -1 mode_2_40 >= -1
 u_le_y_2_40_5: +1 u_2_40_5 -1 y_2_5 <= +0
 u_le_mode_2_40_5: +1 u_2_40_5 -1 mode_2_40 <= +0
 u_ge_and_2_40_5: +1 u_2_40_5 -1 y_2_5 -1 mode_2_40 >= -1
 u_le_y_2_40_6: +1 u_2_40_6 -1 y_2_6 <= +0
 u_le_mode_2_40_6: +1 u_2_40_6 -1 mode_2_40 <= +0
 u_ge_and_2_40_6: +1 u_2_40_6 -1 y_2_6 -1 mode_2_40 >= -1
 u_le_y_2_40_7: +1 u_2_40_7 -1 y_2_7 <= +0
 u_le_mode_2_40_7: +1 u_2_40_7 -1 mode_2_40 <= +0
 u_ge_and_2_40_7: +1 u_2_40_7 -1 y_2_7 -1 mode_2_40 >= -1
 u_le_y_2_40_8: +1 u_2_40_8 -1 y_2_8 <= +0
 u_le_mode_2_40_8: +1 u_2_40_8 -1 mode_2_40 <= +0
 u_ge_and_2_40_8: +1 u_2_40_8 -1 y_2_8 -1 mode_2_40 >= -1
 u_le_y_2_40_9: +1 u_2_40_9 -1 y_2_9 <= +0
 u_le_mode_2_40_9: +1 u_2_40_9 -1 mode_2_40 <= +0
 u_ge_and_2_40_9: +1 u_2_40_9 -1 y_2_9 -1 mode_2_40 >= -1
 u_le_y_2_40_10: +1 u_2_40_10 -1 y_2_10 <= +0
 u_le_mode_2_40_10: +1 u_2_40_10 -1 mode_2_40 <= +0
 u_ge_and_2_40_10: +1 u_2_40_10 -1 y_2_10 -1 mode_2_40 >= -1
 w_mode_link_1_1: +1 w_1_1 -1 u_1_1_1 -1 u_2_1_1 <= +0
 w_mode_link_1_2: +1 w_1_2 -1 u_1_1_2 -1 u_2_1_2 <= +0
 w_mode_link_1_3: +1 w_1_3 -1 u_1_1_3 -1 u_2_1_3 <= +0
 w_mode_link_1_4: +1 w_1_4 -1 u_1_1_4 -1 u_2_1_4 <= +0
 w_mode_link_1_5: +1 w_1_5 -1 u_1_1_5 -1 u_2_1_5 <= +0
 w_mode_link_1_6: +1 w_1_6 -1 u_1_1_6 -1 u_2_1_6 <= +0
 w_mode_link_1_7: +1 w_1_7 -1 u_1_1_7 -1 u_2_1_7 <= +0
 w_mode_link_1_8: +1 w_1_8 -1 u_1_1_8 -1 u_2_1_8 <= +0
 w_mode_link_1_9: +1 w_1_9 -1 u_1_1_9 -1 u_2_1_9 <= +0
 w_mode_link_1_10: +1 w_1_10 -1 u_1_1_10 -1 u_2_1_10 <= +0
 w_mode_link_2_1: +1 w_2_1 -1 u_1_2_1 -1 u_2_2_1 <= +0
 w_mode_link_2_2: +1 w_2_2 -1 u_1_2_2 -1 u_2_2_2 <= +0
 w_mode_link_2_3: +1 w_2_3 -1 u_1_2_3 -1 u_2_2_3 <= +0
 w_mode_link_2_4: +1 w_2_4 -1 u_1_2_4 -1 u_2_2_4 <= +0
 w_mode_link_2_5: +1 w_2_5 -1 u_1_2_5 -1 u_2_2_5 <= +0
 w_mode_link_2_6: +1 w_2_6 -1 u_1_2_6 -1 u_2_2_6 <= +0
 w_mode_link_2_7: +1 w_2_7 -1 u_1_2_7 -1 u_2_2_7 <= +0
 w_mode_link_2_8: +1 w_2_8 -1 u_1_2_8 -1 u_2_2_8 <= +0
 w_mode_link_2_9: +1 w_2_9 -1 u_1_2_9 -1 u_2_2_9 <= +0
 w_mode_link_2_10: +1 w_2_10 -1 u_1_2_10 -1 u_2_2_10 <= +0
 w_mode_link_3_1: +1 w_3_1 -1 u_1_3_1 -1 u_2_3_1 <= +0
 w_mode_link_3_2: +1 w_3_2 -1 u_1_3_2 -1 u_2_3_2 <= +0
 w_mode_link_3_3: +1 w_3_3 -1 u_1_3_3 -1 u_2_3_3 <= +0
 w_mode_link_3_4: +1 w_3_4 -1 u_1_3_4 -1 u_2_3_4 <= +0
 w_mode_link_3_5: +1 w_3_5 -1 u_1_3_5 -1 u_2_3_5 <= +0
 w_mode_link_3_6: +1 w_3_6 -1 u_1_3_6 -1 u_2_3_6 <= +0
 w_mode_link_3_7: +1 w_3_7 -1 u_1_3_7 -1 u_2_3_7 <= +0
 w_mode_link_3_8: +1 w_3_8 -1 u_1_3_8 -1 u_2_3_8 <= +0
 w_mode_link_3_9: +1 w_3_9 -1 u_1_3_9 -1 u_2_3_9 <= +0
 w_mode_link_3_10: +1 w_3_10 -1 u_1_3_10 -1 u_2_3_10 <= +0
 w_mode_link_4_1: +1 w_4_1 -1 u_1_4_1 -1 u_2_4_1 <= +0
 w_mode_link_4_2: +1 w_4_2 -1 u_1_4_2 -1 u_2_4_2 <= +0
 w_mode_link_4_3: +1 w_4_3 -1 u_1_4_3 -1 u_2_4_3 <= +0
 w_mode_link_4_4: +1 w_4_4 -1 u_1_4_4 -1 u_2_4_4 <= +0
 w_mode_link_4_5: +1 w_4_5 -1 u_1_4_5 -1 u_2_4_5 <= +0
 w_mode_link_4_6: +1 w_4_6 -1 u_1_4_6 -1 u_2_4_6 <= +0
 w_mode_link_4_7: +1 w_4_7 -1 u_1_4_7 -1 u_2_4_7 <= +0
 w_mode_link_4_8: +1 w_4_8 -1 u_1_4_8 -1 u_2_4_8 <= +0
 w_mode_link_4_9: +1 w_4_9 -1 u_1_4_9 -1 u_2_4_9 <= +0
 w_mode_link_4_10: +1 w_4_10 -1 u_1_4_10 -1 u_2_4_10 <= +0
 w_mode_link_5_1: +1 w_5_1 -1 u_1_5_1 -1 u_2_5_1 <= +0
 w_mode_link_5_2: +1 w_5_2 -1 u_1_5_2 -1 u_2_5_2 <= +0
 w_mode_link_5_3: +1 w_5_3 -1 u_1_5_3 -1 u_2_5_3 <= +0
 w_mode_link_5_4: +1 w_5_4 -1 u_1_5_4 -1 u_2_5_4 <= +0
 w_mode_link_5_5: +1 w_5_5 -1 u_1_5_5 -1 u_2_5_5 <= +0
 w_mode_link_5_6: +1 w_5_6 -1 u_1_5_6 -1 u_2_5_6 <= +0
 w_mode_link_5_7: +1 w_5_7 -1 u_1_5_7 -1 u_2_5_7 <= +0
 w_mode_link_5_8: +1 w_5_8 -1 u_1_5_8 -1 u_2_5_8 <= +0
 w_mode_link_5_9: +1 w_5_9 -1 u_1_5_9 -1 u_2_5_9 <= +0
 w_mode_link_5_10: +1 w_5_10 -1 u_1_5_10 -1 u_2_5_10 <= +0
 w_mode_link_6_1: +1 w_6_1 -1 u_1_6_1 -1 u_2_6_1 <= +0
 w_mode_link_6_2: +1 w_6_2 -1 u_1_6_2 -1 u_2_6_2 <= +0
 w_mode_link_6_3: +1 w_6_3 -1 u_1_6_3 -1 u_2_6_3 <= +0
 w_mode_link_6_4: +1 w_6_4 -1 u_1_6_4 -1 u_2_6_4 <= +0
 w_mode_link_6_5: +1 w_6_5 -1 u_1_6_5 -1 u_2_6_5 <= +0
 w_mode_link_6_6: +1 w_6_6 -1 u_1_6_6 -1 u_2_6_6 <= +0
 w_mode_link_6_7: +1 w_6_7 -1 u_1_6_7 -1 u_2_6_7 <= +0
 w_mode_link_6_8: +1 w_6_8 -1 u_1_6_8 -1 u_2_6_8 <= +0
 w_mode_link_6_9: +1 w_6_9 -1 u_1_6_9 -1 u_2_6_9 <= +0
 w_mode_link_6_10: +1 w_6_10 -1 u_1_6_10 -1 u_2_6_10 <= +0
 w_mode_link_7_1: +1 w_7_1 -1 u_1_7_1 -1 u_2_7_1 <= +0
 w_mode_link_7_2: +1 w_7_2 -1 u_1_7_2 -1 u_2_7_2 <= +0
 w_mode_link_7_3: +1 w_7_3 -1 u_1_7_3 -1 u_2_7_3 <= +0
 w_mode_link_7_4: +1 w_7_4 -1 u_1_7_4 -1 u_2_7_4 <= +0
 w_mode_link_7_5: +1 w_7_5 -1 u_1_7_5 -1 u_2_7_5 <= +0
 w_mode_link_7_6: +1 w_7_6 -1 u_1_7_6 -1 u_2_7_6 <= +0
 w_mode_link_7_7: +1 w_7_7 -1 u_1_7_7 -1 u_2_7_7 <= +0
 w_mode_link_7_8: +1 w_7_8 -1 u_1_7_8 -1 u_2_7_8 <= +0
 w_mode_link_7_9: +1 w_7_9 -1 u_1_7_9 -1 u_2_7_9 <= +0
 w_mode_link_7_10: +1 w_7_10 -1 u_1_7_10 -1 u_2_7_10 <= +0
 w_mode_link_8_1: +1 w_8_1 -1 u_1_8_1 -1 u_2_8_1 <= +0
 w_mode_link_8_2: +1 w_8_2 -1 u_1_8_2 -1 u_2_8_2 <= +0
 w_mode_link_8_3: +1 w_8_3 -1 u_1_8_3 -1 u_2_8_3 <= +0
 w_mode_link_8_4: +1 w_8_4 -1 u_1_8_4 -1 u_2_8_4 <= +0
 w_mode_link_8_5: +1 w_8_5 -1 u_1_8_5 -1 u_2_8_5 <= +0
 w_mode_link_8_6: +1 w_8_6 -1 u_1_8_6 -1 u_2_8_6 <= +0
 w_mode_link_8_7: +1 w_8_7 -1 u_1_8_7 -1 u_2_8_7 <= +0
 w_mode_link_8_8: +1 w_8_8 -1 u_1_8_8 -1 u_2_8_8 <= +0
 w_mode_link_8_9: +1 w_8_9 -1 u_1_8_9 -1 u_2_8_9 <= +0
 w_mode_link_8_10: +1 w_8_10 -1 u_1_8_10 -1 u_2_8_10 <= +0
 w_mode_link_9_1: +1 w_9_1 -1 u_1_9_1 -1 u_2_9_1 <= +0
 w_mode_link_9_2: +1 w_9_2 -1 u_1_9_2 -1 u_2_9_2 <= +0
 w_mode_link_9_3: +1 w_9_3 -1 u_1_9_3 -1 u_2_9_3 <= +0
 w_mode_link_9_4: +1 w_9_4 -1 u_1_9_4 -1 u_2_9_4 <= +0
 w_mode_link_9_5: +1 w_9_5 -1 u_1_9_5 -1 u_2_9_5 <= +0
 w_mode_link_9_6: +1 w_9_6 -1 u_1_9_6 -1 u_2_9_6 <= +0
 w_mode_link_9_7: +1 w_9_7 -1 u_1_9_7 -1 u_2_9_7 <= +0
 w_mode_link_9_8: +1 w_9_8 -1 u_1_9_8 -1 u_2_9_8 <= +0
 w_mode_link_9_9: +1 w_9_9 -1 u_1_9_9 -1 u_2_9_9 <= +0
 w_mode_link_9_10: +1 w_9_10 -1 u_1_9_10 -1 u_2_9_10 <= +0
 w_mode_link_10_1: +1 w_10_1 -1 u_1_10_1 -1 u_2_10_1 <= +0
 w_mode_link_10_2: +1 w_10_2 -1 u_1_10_2 -1 u_2_10_2 <= +0
 w_mode_link_10_3: +1 w_10_3 -1 u_1_10_3 -1 u_2_10_3 <= +0
 w_mode_link_10_4: +1 w_10_4 -1 u_1_10_4 -1 u_2_10_4 <= +0
 w_mode_link_10_5: +1 w_10_5 -1 u_1_10_5 -1 u_2_10_5 <= +0
 w_mode_link_10_6: +1 w_10_6 -1 u_1_10_6 -1 u_2_10_6 <= +0
 w_mode_link_10_7: +1 w_10_7 -1 u_1_10_7 -1 u_2_10_7 <= +0
 w_mode_link_10_8: +1 w_10_8 -1 u_1_10_8 -1 u_2_10_8 <= +0
 w_mode_link_10_9: +1 w_10_9 -1 u_1_10_9 -1 u_2_10_9 <= +0
 w_mode_link_10_10: +1 w_10_10 -1 u_1_10_10 -1 u_2_10_10 <= +0
 w_mode_link_11_1: +1 w_11_1 -1 u_1_11_1 -1 u_2_11_1 <= +0
 w_mode_link_11_2: +1 w_11_2 -1 u_1_11_2 -1 u_2_11_2 <= +0
 w_mode_link_11_3: +1 w_11_3 -1 u_1_11_3 -1 u_2_11_3 <= +0
 w_mode_link_11_4: +1 w_11_4 -1 u_1_11_4 -1 u_2_11_4 <= +0
 w_mode_link_11_5: +1 w_11_5 -1 u_1_11_5 -1 u_2_11_5 <= +0
 w_mode_link_11_6: +1 w_11_6 -1 u_1_11_6 -1 u_2_11_6 <= +0
 w_mode_link_11_7: +1 w_11_7 -1 u_1_11_7 -1 u_2_11_7 <= +0
 w_mode_link_11_8: +1 w_11_8 -1 u_1_11_8 -1 u_2_11_8 <= +0
 w_mode_link_11_9: +1 w_11_9 -1 u_1_11_9 -1 u_2_11_9 <= +0
 w_mode_link_11_10: +1 w_11_10 -1 u_1_11_10 -1 u_2_11_10 <= +0
 w_mode_link_12_1: +1 w_12_1 -1 u_1_12_1 -1 u_2_12_1 <= +0
 w_mode_link_12_2: +1 w_12_2 -1 u_1_12_2 -1 u_2_12_2 <= +0
 w_mode_link_12_3: +1 w_12_3 -1 u_1_12_3 -1 u_2_12_3 <= +0
 w_mode_link_12_4: +1 w_12_4 -1 u_1_12_4 -1 u_2_12_4 <= +0
 w_mode_link_12_5: +1 w_12_5 -1 u_1_12_5 -1 u_2_12_5 <= +0
 w_mode_link_12_6: +1 w_12_6 -1 u_1_12_6 -1 u_2_12_6 <= +0
 w_mode_link_12_7: +1 w_12_7 -1 u_1_12_7 -1 u_2_12_7 <= +0
 w_mode_link_12_8: +1 w_12_8 -1 u_1_12_8 -1 u_2_12_8 <= +0
 w_mode_link_12_9: +1 w_12_9 -1 u_1_12_9 -1 u_2_12_9 <= +0
 w_mode_link_12_10: +1 w_12_10 -1 u_1_12_10 -1 u_2_12_10 <= +0
 w_mode_link_13_1: +1 w_13_1 -1 u_1_13_1 -1 u_2_13_1 <= +0
 w_mode_link_13_2: +1 w_13_2 -1 u_1_13_2 -1 u_2_13_2 <= +0
 w_mode_link_13_3: +1 w_13_3 -1 u_1_13_3 -1 u_2_13_3 <= +0
 w_mode_link_13_4: +1 w_13_4 -1 u_1_13_4 -1 u_2_13_4 <= +0
 w_mode_link_13_5: +1 w_13_5 -1 u_1_13_5 -1 u_2_13_5 <= +0
 w_mode_link_13_6: +1 w_13_6 -1 u_1_13_6 -1 u_2_13_6 <= +0
 w_mode_link_13_7: +1 w_13_7 -1 u_1_13_7 -1 u_2_13_7 <= +0
 w_mode_link_13_8: +1 w_13_8 -1 u_1_13_8 -1 u_2_13_8 <= +0
 w_mode_link_13_9: +1 w_13_9 -1 u_1_13_9 -1 u_2_13_9 <= +0
 w_mode_link_13_10: +1 w_13_10 -1 u_1_13_10 -1 u_2_13_10 <= +0
 w_mode_link_14_1: +1 w_14_1 -1 u_1_14_1 -1 u_2_14_1 <= +0
 w_mode_link_14_2: +1 w_14_2 -1 u_1_14_2 -1 u_2_14_2 <= +0
 w_mode_link_14_3: +1 w_14_3 -1 u_1_14_3 -1 u_2_14_3 <= +0
 w_mode_link_14_4: +1 w_14_4 -1 u_1_14_4 -1 u_2_14_4 <= +0
 w_mode_link_14_5: +1 w_14_5 -1 u_1_14_5 -1 u_2_14_5 <= +0
 w_mode_link_14_6: +1 w_14_6 -1 u_1_14_6 -1 u_2_14_6 <= +0
 w_mode_link_14_7: +1 w_14_7 -1 u_1_14_7 -1 u_2_14_7 <= +0
 w_mode_link_14_8: +1 w_14_8 -1 u_1_14_8 -1 u_2_14_8 <= +0
 w_mode_link_14_9: +1 w_14_9 -1 u_1_14_9 -1 u_2_14_9 <= +0
 w_mode_link_14_10: +1 w_14_10 -1 u_1_14_10 -1 u_2_14_10 <= +0
 w_mode_link_15_1: +1 w_15_1 -1 u_1_15_1 -1 u_2_15_1 <= +0
 w_mode_link_15_2: +1 w_15_2 -1 u_1_15_2 -1 u_2_15_2 <= +0
 w_mode_link_15_3: +1 w_15_3 -1 u_1_15_3 -1 u_2_15_3 <= +0
 w_mode_link_15_4: +1 w_15_4 -1 u_1_15_4 -1 u_2_15_4 <= +0
 w_mode_link_15_5: +1 w_15_5 -1 u_1_15_5 -1 u_2_15_5 <= +0
 w_mode_link_15_6: +1 w_15_6 -1 u_1_15_6 -1 u_2_15_6 <= +0
 w_mode_link_15_7: +1 w_15_7 -1 u_1_15_7 -1 u_2_15_7 <= +0
 w_mode_link_15_8: +1 w_15_8 -1 u_1_15_8 -1 u_2_15_8 <= +0
 w_mode_link_15_9: +1 w_15_9 -1 u_1_15_9 -1 u_2_15_9 <= +0
 w_mode_link_15_10: +1 w_15_10 -1 u_1_15_10 -1 u_2_15_10 <= +0
 w_mode_link_16_1: +1 w_16_1 -1 u_1_16_1 -1 u_2_16_1 <= +0
 w_mode_link_16_2: +1 w_16_2 -1 u_1_16_2 -1 u_2_16_2 <= +0
 w_mode_link_16_3: +1 w_16_3 -1 u_1_16_3 -1 u_2_16_3 <= +0
 w_mode_link_16_4: +1 w_16_4 -1 u_1_16_4 -1 u_2_16_4 <= +0
 w_mode_link_16_5: +1 w_16_5 -1 u_1_16_5 -1 u_2_16_5 <= +0
 w_mode_link_16_6: +1 w_16_6 -1 u_1_16_6 -1 u_2_16_6 <= +0
 w_mode_link_16_7: +1 w_16_7 -1 u_1_16_7 -1 u_2_16_7 <= +0
 w_mode_link_16_8: +1 w_16_8 -1 u_1_16_8 -1 u_2_16_8 <= +0
 w_mode_link_16_9: +1 w_16_9 -1 u_1_16_9 -1 u_2_16_9 <= +0
 w_mode_link_16_10: +1 w_16_10 -1 u_1_16_10 -1 u_2_16_10 <= +0
 w_mode_link_17_1: +1 w_17_1 -1 u_1_17_1 -1 u_2_17_1 <= +0
 w_mode_link_17_2: +1 w_17_2 -1 u_1_17_2 -1 u_2_17_2 <= +0
 w_mode_link_17_3: +1 w_17_3 -1 u_1_17_3 -1 u_2_17_3 <= +0
 w_mode_link_17_4: +1 w_17_4 -1 u_1_17_4 -1 u_2_17_4 <= +0
 w_mode_link_17_5: +1 w_17_5 -1 u_1_17_5 -1 u_2_17_5 <= +0
 w_mode_link_17_6: +1 w_17_6 -1 u_1_17_6 -1 u_2_17_6 <= +0
 w_mode_link_17_7: +1 w_17_7 -1 u_1_17_7 -1 u_2_17_7 <= +0
 w_mode_link_17_8: +1 w_17_8 -1 u_1_17_8 -1 u_2_17_8 <= +0
 w_mode_link_17_9: +1 w_17_9 -1 u_1_17_9 -1 u_2_17_9 <= +0
 w_mode_link_17_10: +1 w_17_10 -1 u_1_17_10 -1 u_2_17_10 <= +0
 w_mode_link_18_1: +1 w_18_1 -1 u_1_18_1 -1 u_2_18_1 <= +0
 w_mode_link_18_2: +1 w_18_2 -1 u_1_18_2 -1 u_2_18_2 <= +0
 w_mode_link_18_3: +1 w_18_3 -1 u_1_18_3 -1 u_2_18_3 <= +0
 w_mode_link_18_4: +1 w_18_4 -1 u_1_18_4 -1 u_2_18_4 <= +0
 w_mode_link_18_5: +1 w_18_5 -1 u_1_18_5 -1 u_2_18_5 <= +0
 w_mode_link_18_6: +1 w_18_6 -1 u_1_18_6 -1 u_2_18_6 <= +0
 w_mode_link_18_7: +1 w_18_7 -1 u_1_18_7 -1 u_2_18_7 <= +0
 w_mode_link_18_8: +1 w_18_8 -1 u_1_18_8 -1 u_2_18_8 <= +0
 w_mode_link_18_9: +1 w_18_9 -1 u_1_18_9 -1 u_2_18_9 <= +0
 w_mode_link_18_10: +1 w_18_10 -1 u_1_18_10 -1 u_2_18_10 <= +0
 w_mode_link_19_1: +1 w_19_1 -1 u_1_19_1 -1 u_2_19_1 <= +0
 w_mode_link_19_2: +1 w_19_2 -1 u_1_19_2 -1 u_2_19_2 <= +0
 w_mode_link_19_3: +1 w_19_3 -1 u_1_19_3 -1 u_2_19_3 <= +0
 w_mode_link_19_4: +1 w_19_4 -1 u_1_19_4 -1 u_2_19_4 <= +0
 w_mode_link_19_5: +1 w_19_5 -1 u_1_19_5 -1 u_2_19_5 <= +0
 w_mode_link_19_6: +1 w_19_6 -1 u_1_19_6 -1 u_2_19_6 <= +0
 w_mode_link_19_7: +1 w_19_7 -1 u_1_19_7 -1 u_2_19_7 <= +0
 w_mode_link_19_8: +1 w_19_8 -1 u_1_19_8 -1 u_2_19_8 <= +0
 w_mode_link_19_9: +1 w_19_9 -1 u_1_19_9 -1 u_2_19_9 <= +0
 w_mode_link_19_10: +1 w_19_10 -1 u_1_19_10 -1 u_2_19_10 <= +0
 w_mode_link_20_1: +1 w_20_1 -1 u_1_20_1 -1 u_2_20_1 <= +0
 w_mode_link_20_2: +1 w_20_2 -1 u_1_20_2 -1 u_2_20_2 <= +0
 w_mode_link_20_3: +1 w_20_3 -1 u_1_20_3 -1 u_2_20_3 <= +0
 w_mode_link_20_4: +1 w_20_4 -1 u_1_20_4 -1 u_2_20_4 <= +0
 w_mode_link_20_5: +1 w_20_5 -1 u_1_20_5 -1 u_2_20_5 <= +0
 w_mode_link_20_6: +1 w_20_6 -1 u_1_20_6 -1 u_2_20_6 <= +0
 w_mode_link_20_7: +1 w_20_7 -1 u_1_20_7 -1 u_2_20_7 <= +0
 w_mode_link_20_8: +1 w_20_8 -1 u_1_20_8 -1 u_2_20_8 <= +0
 w_mode_link_20_9: +1 w_20_9 -1 u_1_20_9 -1 u_2_20_9 <= +0
 w_mode_link_20_10: +1 w_20_10 -1 u_1_20_10 -1 u_2_20_10 <= +0
 w_mode_link_21_1: +1 w_21_1 -1 u_1_21_1 -1 u_2_21_1 <= +0
 w_mode_link_21_2: +1 w_21_2 -1 u_1_21_2 -1 u_2_21_2 <= +0
 w_mode_link_21_3: +1 w_21_3 -1 u_1_21_3 -1 u_2_21_3 <= +0
 w_mode_link_21_4: +1 w_21_4 -1 u_1_21_4 -1 u_2_21_4 <= +0
 w_mode_link_21_5: +1 w_21_5 -1 u_1_21_5 -1 u_2_21_5 <= +0
 w_mode_link_21_6: +1 w_21_6 -1 u_1_21_6 -1 u_2_21_6 <= +0
 w_mode_link_21_7: +1 w_21_7 -1 u_1_21_7 -1 u_2_21_7 <= +0
 w_mode_link_21_8: +1 w_21_8 -1 u_1_21_8 -1 u_2_21_8 <= +0
 w_mode_link_21_9: +1 w_21_9 -1 u_1_21_9 -1 u_2_21_9 <= +0
 w_mode_link_21_10: +1 w_21_10 -1 u_1_21_10 -1 u_2_21_10 <= +0
 w_mode_link_22_1: +1 w_22_1 -1 u_1_22_1 -1 u_2_22_1 <= +0
 w_mode_link_22_2: +1 w_22_2 -1 u_1_22_2 -1 u_2_22_2 <= +0
 w_mode_link_22_3: +1 w_22_3 -1 u_1_22_3 -1 u_2_22_3 <= +0
 w_mode_link_22_4: +1 w_22_4 -1 u_1_22_4 -1 u_2_22_4 <= +0
 w_mode_link_22_5: +1 w_22_5 -1 u_1_22_5 -1 u_2_22_5 <= +0
 w_mode_link_22_6: +1 w_22_6 -1 u_1_22_6 -1 u_2_22_6 <= +0
 w_mode_link_22_7: +1 w_22_7 -1 u_1_22_7 -1 u_2_22_7 <= +0
 w_mode_link_22_8: +1 w_22_8 -1 u_1_22_8 -1 u_2_22_8 <= +0
 w_mode_link_22_9: +1 w_22_9 -1 u_1_22_9 -1 u_2_22_9 <= +0
 w_mode_link_22_10: +1 w_22_10 -1 u_1_22_10 -1 u_2_22_10 <= +0
 w_mode_link_23_1: +1 w_23_1 -1 u_1_23_1 -1 u_2_23_1 <= +0
 w_mode_link_23_2: +1 w_23_2 -1 u_1_23_2 -1 u_2_23_2 <= +0
 w_mode_link_23_3: +1 w_23_3 -1 u_1_23_3 -1 u_2_23_3 <= +0
 w_mode_link_23_4: +1 w_23_4 -1 u_1_23_4 -1 u_2_23_4 <= +0
 w_mode_link_23_5: +1 w_23_5 -1 u_1_23_5 -1 u_2_23_5 <= +0
 w_mode_link_23_6: +1 w_23_6 -1 u_1_23_6 -1 u_2_23_6 <= +0
 w_mode_link_23_7: +1 w_23_7 -1 u_1_23_7 -1 u_2_23_7 <= +0
 w_mode_link_23_8: +1 w_23_8 -1 u_1_23_8 -1 u_2_23_8 <= +0
 w_mode_link_23_9: +1 w_23_9 -1 u_1_23_9 -1 u_2_23_9 <= +0
 w_mode_link_23_10: +1 w_23_10 -1 u_1_23_10 -1 u_2_23_10 <= +0
 w_mode_link_24_1: +1 w_24_1 -1 u_1_24_1 -1 u_2_24_1 <= +0
 w_mode_link_24_2: +1 w_24_2 -1 u_1_24_2 -1 u_2_24_2 <= +0
 w_mode_link_24_3: +1 w_24_3 -1 u_1_24_3 -1 u_2_24_3 <= +0
 w_mode_link_24_4: +1 w_24_4 -1 u_1_24_4 -1 u_2_24_4 <= +0
 w_mode_link_24_5: +1 w_24_5 -1 u_1_24_5 -1 u_2_24_5 <= +0
 w_mode_link_24_6: +1 w_24_6 -1 u_1_24_6 -1 u_2_24_6 <= +0
 w_mode_link_24_7: +1 w_24_7 -1 u_1_24_7 -1 u_2_24_7 <= +0
 w_mode_link_24_8: +1 w_24_8 -1 u_1_24_8 -1 u_2_24_8 <= +0
 w_mode_link_24_9: +1 w_24_9 -1 u_1_24_9 -1 u_2_24_9 <= +0
 w_mode_link_24_10: +1 w_24_10 -1 u_1_24_10 -1 u_2_24_10 <= +0
 w_mode_link_25_1: +1 w_25_1 -1 u_1_25_1 -1 u_2_25_1 <= +0
 w_mode_link_25_2: +1 w_25_2 -1 u_1_25_2 -1 u_2_25_2 <= +0
 w_mode_link_25_3: +1 w_25_3 -1 u_1_25_3 -1 u_2_25_3 <= +0
 w_mode_link_25_4: +1 w_25_4 -1 u_1_25_4 -1 u_2_25_4 <= +0
 w_mode_link_25_5: +1 w_25_5 -1 u_1_25_5 -1 u_2_25_5 <= +0
 w_mode_link_25_6: +1 w_25_6 -1 u_1_25_6 -1 u_2_25_6 <= +0
 w_mode_link_25_7: +1 w_25_7 -1 u_1_25_7 -1 u_2_25_7 <= +0
 w_mode_link_25_8: +1 w_25_8 -1 u_1_25_8 -1 u_2_25_8 <= +0
 w_mode_link_25_9: +1 w_25_9 -1 u_1_25_9 -1 u_2_25_9 <= +0
 w_mode_link_25_10: +1 w_25_10 -1 u_1_25_10 -1 u_2_25_10 <= +0
 w_mode_link_26_1: +1 w_26_1 -1 u_1_26_1 -1 u_2_26_1 <= +0
 w_mode_link_26_2: +1 w_26_2 -1 u_1_26_2 -1 u_2_26_2 <= +0
 w_mode_link_26_3: +1 w_26_3 -1 u_1_26_3 -1 u_2_26_3 <= +0
 w_mode_link_26_4: +1 w_26_4 -1 u_1_26_4 -1 u_2_26_4 <= +0
 w_mode_link_26_5: +1 w_26_5 -1 u_1_26_5 -1 u_2_26_5 <= +0
 w_mode_link_26_6: +1 w_26_6 -1 u_1_26_6 -1 u_2_26_6 <= +0
 w_mode_link_26_7: +1 w_26_7 -1 u_1_26_7 -1 u_2_26_7 <= +0
 w_mode_link_26_8: +1 w_26_8 -1 u_1_26_8 -1 u_2_26_8 <= +0
 w_mode_link_26_9: +1 w_26_9 -1 u_1_26_9 -1 u_2_26_9 <= +0
 w_mode_link_26_10: +1 w_26_10 -1 u_1_26_10 -1 u_2_26_10 <= +0
 w_mode_link_27_1: +1 w_27_1 -1 u_1_27_1 -1 u_2_27_1 <= +0
 w_mode_link_27_2: +1 w_27_2 -1 u_1_27_2 -1 u_2_27_2 <= +0
 w_mode_link_27_3: +1 w_27_3 -1 u_1_27_3 -1 u_2_27_3 <= +0
 w_mode_link_27_4: +1 w_27_4 -1 u_1_27_4 -1 u_2_27_4 <= +0
 w_mode_link_27_5: +1 w_27_5 -1 u_1_27_5 -1 u_2_27_5 <= +0
 w_mode_link_27_6: +1 w_27_6 -1 u_1_27_6 -1 u_2_27_6 <= +0
 w_mode_link_27_7: +1 w_27_7 -1 u_1_27_7 -1 u_2_27_7 <= +0
 w_mode_link_27_8: +1 w_27_8 -1 u_1_27_8 -1 u_2_27_8 <= +0
 w_mode_link_27_9: +1 w_27_9 -1 u_1_27_9 -1 u_2_27_9 <= +0
 w_mode_link_27_10: +1 w_27_10 -1 u_1_27_10 -1 u_2_27_10 <= +0
 w_mode_link_28_1: +1 w_28_1 -1 u_1_28_1 -1 u_2_28_1 <= +0
 w_mode_link_28_2: +1 w_28_2 -1 u_1_28_2 -1 u_2_28_2 <= +0
 w_mode_link_28_3: +1 w_28_3 -1 u_1_28_3 -1 u_2_28_3 <= +0
 w_mode_link_28_4: +1 w_28_4 -1 u_1_28_4 -1 u_2_28_4 <= +0
 w_mode_link_28_5: +1 w_28_5 -1 u_1_28_5 -1 u_2_28_5 <= +0
 w_mode_link_28_6: +1 w_28_6 -1 u_1_28_6 -1 u_2_28_6 <= +0
 w_mode_link_28_7: +1 w_28_7 -1 u_1_28_7 -1 u_2_28_7 <= +0
 w_mode_link_28_8: +1 w_28_8 -1 u_1_28_8 -1 u_2_28_8 <= +0
 w_mode_link_28_9: +1 w_28_9 -1 u_1_28_9 -1 u_2_28_9 <= +0
 w_mode_link_28_10: +1 w_28_10 -1 u_1_28_10 -1 u_2_28_10 <= +0
 w_mode_link_29_1: +1 w_29_1 -1 u_1_29_1 -1 u_2_29_1 <= +0
 w_mode_link_29_2: +1 w_29_2 -1 u_1_29_2 -1 u_2_29_2 <= +0
 w_mode_link_29_3: +1 w_29_3 -1 u_1_29_3 -1 u_2_29_3 <= +0
 w_mode_link_29_4: +1 w_29_4 -1 u_1_29_4 -1 u_2_29_4 <= +0
 w_mode_link_29_5: +1 w_29_5 -1 u_1_29_5 -1 u_2_29_5 <= +0
 w_mode_link_29_6: +1 w_29_6 -1 u_1_29_6 -1 u_2_29_6 <= +0
 w_mode_link_29_7: +1 w_29_7 -1 u_1_29_7 -1 u_2_29_7 <= +0
 w_mode_link_29_8: +1 w_29_8 -1 u_1_29_8 -1 u_2_29_8 <= +0
 w_mode_link_29_9: +1 w_29_9 -1 u_1_29_9 -1 u_2_29_9 <= +0
 w_mode_link_29_10: +1 w_29_10 -1 u_1_29_10 -1 u_2_29_10 <= +0
 w_mode_link_30_1: +1 w_30_1 -1 u_1_30_1 -1 u_2_30_1 <= +0
 w_mode_link_30_2: +1 w_30_2 -1 u_1_30_2 -1 u_2_30_2 <= +0
 w_mode_link_30_3: +1 w_30_3 -1 u_1_30_3 -1 u_2_30_3 <= +0
 w_mode_link_30_4: +1 w_30_4 -1 u_1_30_4 -1 u_2_30_4 <= +0
 w_mode_link_30_5: +1 w_30_5 -1 u_1_30_5 -1 u_2_30_5 <= +0
 w_mode_link_30_6: +1 w_30_6 -1 u_1_30_6 -1 u_2_30_6 <= +0
 w_mode_link_30_7: +1 w_30_7 -1 u_1_30_7 -1 u_2_30_7 <= +0
 w_mode_link_30_8: +1 w_30_8 -1 u_1_30_8 -1 u_2_30_8 <= +0
 w_mode_link_30_9: +1 w_30_9 -1 u_1_30_9 -1 u_2_30_9 <= +0
 w_mode_link_30_10: +1 w_30_10 -1 u_1_30_10 -1 u_2_30_10 <= +0
 w_mode_link_31_1: +1 w_31_1 -1 u_1_31_1 -1 u_2_31_1 <= +0
 w_mode_link_31_2: +1 w_31_2 -1 u_1_31_2 -1 u_2_31_2 <= +0
 w_mode_link_31_3: +1 w_31_3 -1 u_1_31_3 -1 u_2_31_3 <= +0
 w_mode_link_31_4: +1 w_31_4 -1 u_1_31_4 -1 u_2_31_4 <= +0
 w_mode_link_31_5: +1 w_31_5 -1 u_1_31_5 -1 u_2_31_5 <= +0
 w_mode_link_31_6: +1 w_31_6 -1 u_1_31_6 -1 u_2_31_6 <= +0
 w_mode_link_31_7: +1 w_31_7 -1 u_1_31_7 -1 u_2_31_7 <= +0
 w_mode_link_31_8: +1 w_31_8 -1 u_1_31_8 -1 u_2_31_8 <= +0
 w_mode_link_31_9: +1 w_31_9 -1 u_1_31_9 -1 u_2_31_9 <= +0
 w_mode_link_31_10: +1 w_31_10 -1 u_1_31_10 -1 u_2_31_10 <= +0
 w_mode_link_32_1: +1 w_32_1 -1 u_1_32_1 -1 u_2_32_1 <= +0
 w_mode_link_32_2: +1 w_32_2 -1 u_1_32_2 -1 u_2_32_2 <= +0
 w_mode_link_32_3: +1 w_32_3 -1 u_1_32_3 -1 u_2_32_3 <= +0
 w_mode_link_32_4: +1 w_32_4 -1 u_1_32_4 -1 u_2_32_4 <= +0
 w_mode_link_32_5: +1 w_32_5 -1 u_1_32_5 -1 u_2_32_5 <= +0
 w_mode_link_32_6: +1 w_32_6 -1 u_1_32_6 -1 u_2_32_6 <= +0
 w_mode_link_32_7: +1 w_32_7 -1 u_1_32_7 -1 u_2_32_7 <= +0
 w_mode_link_32_8: +1 w_32_8 -1 u_1_32_8 -1 u_2_32_8 <= +0
 w_mode_link_32_9: +1 w_32_9 -1 u_1_32_9 -1 u_2_32_9 <= +0
 w_mode_link_32_10: +1 w_32_10 -1 u_1_32_10 -1 u_2_32_10 <= +0
 w_mode_link_33_1: +1 w_33_1 -1 u_1_33_1 -1 u_2_33_1 <= +0
 w_mode_link_33_2: +1 w_33_2 -1 u_1_33_2 -1 u_2_33_2 <= +0
 w_mode_link_33_3: +1 w_33_3 -1 u_1_33_3 -1 u_2_33_3 <= +0
 w_mode_link_33_4: +1 w_33_4 -1 u_1_33_4 -1 u_2_33_4 <= +0
 w_mode_link_33_5: +1 w_33_5 -1 u_1_33_5 -1 u_2_33_5 <= +0
 w_mode_link_33_6: +1 w_33_6 -1 u_1_33_6 -1 u_2_33_6 <= +0
 w_mode_link_33_7: +1 w_33_7 -1 u_1_33_7 -1 u_2_33_7 <= +0
 w_mode_link_33_8: +1 w_33_8 -1 u_1_33_8 -1 u_2_33_8 <= +0
 w_mode_link_33_9: +1 w_33_9 -1 u_1_33_9 -1 u_2_33_9 <= +0
 w_mode_link_33_10: +1 w_33_10 -1 u_1_33_10 -1 u_2_33_10 <= +0
 w_mode_link_34_1: +1 w_34_1 -1 u_1_34_1 -1 u_2_34_1 <= +0
 w_mode_link_34_2: +1 w_34_2 -1 u_1_34_2 -1 u_2_34_2 <= +0
 w_mode_link_34_3: +1 w_34_3 -1 u_1_34_3 -1 u_2_34_3 <= +0
 w_mode_link_34_4: +1 w_34_4 -1 u_1_34_4 -1 u_2_34_4 <= +0
 w_mode_link_34_5: +1 w_34_5 -1 u_1_34_5 -1 u_2_34_5 <= +0
 w_mode_link_34_6: +1 w_34_6 -1 u_1_34_6 -1 u_2_34_6 <= +0
 w_mode_link_34_7: +1 w_34_7 -1 u_1_34_7 -1 u_2_34_7 <= +0
 w_mode_link_34_8: +1 w_34_8 -1 u_1_34_8 -1 u_2_34_8 <= +0
 w_mode_link_34_9: +1 w_34_9 -1 u_1_34_9 -1 u_2_34_9 <= +0
 w_mode_link_34_10: +1 w_34_10 -1 u_1_34_10 -1 u_2_34_10 <= +0
 w_mode_link_35_1: +1 w_35_1 -1 u_1_35_1 -1 u_2_35_1 <= +0
 w_mode_link_35_2: +1 w_35_2 -1 u_1_35_2 -1 u_2_35_2 <= +0
 w_mode_link_35_3: +1 w_35_3 -1 u_1_35_3 -1 u_2_35_3 <= +0
 w_mode_link_35_4: +1 w_35_4 -1 u_1_35_4 -1 u_2_35_4 <= +0
 w_mode_link_35_5: +1 w_35_5 -1 u_1_35_5 -1 u_2_35_5 <= +0
 w_mode_link_35_6: +1 w_35_6 -1 u_1_35_6 -1 u_2_35_6 <= +0
 w_mode_link_35_7: +1 w_35_7 -1 u_1_35_7 -1 u_2_35_7 <= +0
 w_mode_link_35_8: +1 w_35_8 -1 u_1_35_8 -1 u_2_35_8 <= +0
 w_mode_link_35_9: +1 w_35_9 -1 u_1_35_9 -1 u_2_35_9 <= +0
 w_mode_link_35_10: +1 w_35_10 -1 u_1_35_10 -1 u_2_35_10 <= +0
 w_mode_link_36_1: +1 w_36_1 -1 u_1_36_1 -1 u_2_36_1 <= +0
 w_mode_link_36_2: +1 w_36_2 -1 u_1_36_2 -1 u_2_36_2 <= +0
 w_mode_link_36_3: +1 w_36_3 -1 u_1_36_3 -1 u_2_36_3 <= +0
 w_mode_link_36_4: +1 w_36_4 -1 u_1_36_4 -1 u_2_36_4 <= +0
 w_mode_link_36_5: +1 w_36_5 -1 u_1_36_5 -1 u_2_36_5 <= +0
 w_mode_link_36_6: +1 w_36_6 -1 u_1_36_6 -1 u_2_36_6 <= +0
 w_mode_link_36_7: +1 w_36_7 -1 u_1_36_7 -1 u_2_36_7 <= +0
 w_mode_link_36_8: +1 w_36_8 -1 u_1_36_8 -1 u_2_36_8 <= +0
 w_mode_link_36_9: +1 w_36_9 -1 u_1_36_9 -1 u_2_36_9 <= +0
 w_mode_link_36_10: +1 w_36_10 -1 u_1_36_10 -1 u_2_36_10 <= +0
 w_mode_link_37_1: +1 w_37_1 -1 u_1_37_1 -1 u_2_37_1 <= +0
 w_mode_link_37_2: +1 w_37_2 -1 u_1_37_2 -1 u_2_37_2 <= +0
 w_mode_link_37_3: +1 w_37_3 -1 u_1_37_3 -1 u_2_37_3 <= +0
 w_mode_link_37_4: +1 w_37_4 -1 u_1_37_4 -1 u_2_37_4 <= +0
 w_mode_link_37_5: +1 w_37_5 -1 u_1_37_5 -1 u_2_37_5 <= +0
 w_mode_link_37_6: +1 w_37_6 -1 u_1_37_6 -1 u_2_37_6 <= +0
 w_mode_link_37_7: +1 w_37_7 -1 u_1_37_7 -1 u_2_37_7 <= +0
 w_mode_link_37_8: +1 w_37_8 -1 u_1_37_8 -1 u_2_37_8 <= +0
 w_mode_link_37_9: +1 w_37_9 -1 u_1_37_9 -1 u_2_37_9 <= +0
 w_mode_link_37_10: +1 w_37_10 -1 u_1_37_10 -1 u_2_37_10 <= +0
 w_mode_link_38_1: +1 w_38_1 -1 u_1_38_1 -1 u_2_38_1 <= +0
 w_mode_link_38_2: +1 w_38_2 -1 u_1_38_2 -1 u_2_38_2 <= +0
 w_mode_link_38_3: +1 w_38_3 -1 u_1_38_3 -1 u_2_38_3 <= +0
 w_mode_link_38_4: +1 w_38_4 -1 u_1_38_4 -1 u_2_38_4 <= +0
 w_mode_link_38_5: +1 w_38_5 -1 u_1_38_5 -1 u_2_38_5 <= +0
 w_mode_link_38_6: +1 w_38_6 -1 u_1_38_6 -1 u_2_38_6 <= +0
 w_mode_link_38_7: +1 w_38_7 -1 u_1_38_7 -1 u_2_38_7 <= +0
 w_mode_link_38_8: +1 w_38_8 -1 u_1_38_8 -1 u_2_38_8 <= +0
 w_mode_link_38_9: +1 w_38_9 -1 u_1_38_9 -1 u_2_38_9 <= +0
 w_mode_link_38_10: +1 w_38_10 -1 u_1_38_10 -1 u_2_38_10 <= +0
 w_mode_link_39_1: +1 w_39_1 -1 u_1_39_1 -1 u_2_39_1 <= +0
 w_mode_link_39_2: +1 w_39_2 -1 u_1_39_2 -1 u_2_39_2 <= +0
 w_mode_link_39_3: +1 w_39_3 -1 u_1_39_3 -1 u_2_39_3 <= +0
 w_mode_link_39_4: +1 w_39_4 -1 u_1_39_4 -1 u_2_39_4 <= +0
 w_mode_link_39_5: +1 w_39_5 -1 u_1_39_5 -1 u_2_39_5 <= +0
 w_mode_link_39_6: +1 w_39_6 -1 u_1_39_6 -1 u_2_39_6 <= +0
 w_mode_link_39_7: +1 w_39_7 -1 u_1_39_7 -1 u_2_39_7 <= +0
 w_mode_link_39_8: +1 w_39_8 -1 u_1_39_8 -1 u_2_39_8 <= +0
 w_mode_link_39_9: +1 w_39_9 -1 u_1_39_9 -1 u_2_39_9 <= +0
 w_mode_link_39_10: +1 w_39_10 -1 u_1_39_10 -1 u_2_39_10 <= +0
 w_mode_link_40_1: +1 w_40_1 -1 u_1_40_1 -1 u_2_40_1 <= +0
 w_mode_link_40_2: +1 w_40_2 -1 u_1_40_2 -1 u_2_40_2 <= +0
 w_mode_link_40_3: +1 w_40_3 -1 u_1_40_3 -1 u_2_40_3 <= +0
 w_mode_link_40_4: +1 w_40_4 -1 u_1_40_4 -1 u_2_40_4 <= +0
 w_mode_link_40_5: +1 w_40_5 -1 u_1_40_5 -1 u_2_40_5 <= +0
 w_mode_link_40_6: +1 w_40_6 -1 u_1_40_6 -1 u_2_40_6 <= +0
 w_mode_link_40_7: +1 w_40_7 -1 u_1_40_7 -1 u_2_40_7 <= +0
 w_mode_link_40_8: +1 w_40_8 -1 u_1_40_8 -1 u_2_40_8 <= +0
 w_mode_link_40_9: +1 w_40_9 -1 u_1_40_9 -1 u_2_40_9 <= +0
 w_mode_link_40_10: +1 w_40_10 -1 u_1_40_10 -1 u_2_40_10 <= +0
 z_group0_1_1: +1 z_1_1 -1 z_1_0 = +0
 z_group0_1_2: +1 z_1_2 -1 z_1_0 = +0
 z_group0_1_3: +1 z_1_3 -1 z_1_0 = +0
 z_group0_1_4: +1 z_1_4 -1 z_1_0 = +0
 z_group1_1_6: +1 z_1_6 -1 z_1_5 = +0
 z_group1_1_7: +1 z_1_7 -1 z_1_5 = +0
 z_group1_1_8: +1 z_1_8 -1 z_1_5 = +0
 z_group1_1_9: +1 z_1_9 -1 z_1_5 = +0
 z_group2_1_11: +1 z_1_11 -1 z_1_10 = +0
 z_group2_1_12: +1 z_1_12 -1 z_1_10 = +0
 pec_to_z0_1: +1 z_1_0 -1 pec_0_1 -1 pec_1_1 -1 pec_2_1 -1 pec_3_1 = +0
 pec_to_z5_1: +1 z_1_5 -1 pec_0_1 -1 pec_1_1 = +0
 pec_to_z10_1: +1 z_1_10 -1 pec_1_1 -1 pec_2_1 -1 pec_3_1 -1 pec_4_1 = +0
 completion_path_1: +1 z_1_4 +1 z_1_9 >= +1
 z_group0_2_1: +1 z_2_1 -1 z_2_0 = +0
 z_group0_2_2: +1 z_2_2 -1 z_2_0 = +0
 z_group0_2_3: +1 z_2_3 -1 z_2_0 = +0
 z_group0_2_4: +1 z_2_4 -1 z_2_0 = +0
 z_group1_2_6: +1 z_2_6 -1 z_2_5 = +0
 z_group1_2_7: +1 z_2_7 -1 z_2_5 = +0
 z_group1_2_8: +1 z_2_8 -1 z_2_5 = +0
 z_group1_2_9: +1 z_2_9 -1 z_2_5 = +0
 z_group2_2_11: +1 z_2_11 -1 z_2_10 = +0
 z_group2_2_12: +1 z_2_12 -1 z_2_10 = +0
 pec_to_z0_2: +1 z_2_0 -1 pec_0_2 -1 pec_1_2 -1 pec_2_2 -1 pec_3_2 = +0
 pec_to_z5_2: +1 z_2_5 -1 pec_0_2 -1 pec_1_2 = +0
 pec_to_z10_2: +1 z_2_10 -1 pec_1_2 -1 pec_2_2 -1 pec_3_2 -1 pec_4_2 = +0
 completion_path_2: +1 z_2_4 +1 z_2_9 >= +1
 z_group0_3_1: +1 z_3_1 -1 z_3_0 = +0
 z_group0_3_2: +1 z_3_2 -1 z_3_0 = +0
 z_group0_3_3: +1 z_3_3 -1 z_3_0 = +0
 z_group0_3_4: +1 z_3_4 -1 z_3_0 = +0
 z_group1_3_6: +1 z_3_6 -1 z_3_5 = +0
 z_group1_3_7: +1 z_3_7 -1 z_3_5 = +0
 z_group1_3_8: +1 z_3_8 -1 z_3_5 = +0
 z_group1_3_9: +1 z_3_9 -1 z_3_5 = +0
 z_group2_3_11: +1 z_3_11 -1 z_3_10 = +0
 z_group2_3_12: +1 z_3_12 -1 z_3_10 = +0
 pec_to_z0_3: +1 z_3_0 -1 pec_0_3 -1 pec_1_3 -1 pec_2_3 -1 pec_3_3 = +0
 pec_to_z5_3: +1 z_3_5 -1 pec_0_3 -1 pec_1_3 = +0
 pec_to_z10_3: +1 z_3_10 -1 pec_1_3 -1 pec_2_3 -1 pec_3_3 -1 pec_4_3 = +0
 completion_path_3: +1 z_3_4 +1 z_3_9 >= +1
 z_group0_4_1: +1 z_4_1 -1 z_4_0 = +0
 z_group0_4_2: +1 z_4_2 -1 z_4_0 = +0
 z_group0_4_3: +1 z_4_3 -1 z_4_0 = +0
 z_group0_4_4: +1 z_4_4 -1 z_4_0 = +0
 z_group1_4_6: +1 z_4_6 -1 z_4_5 = +0
 z_group1_4_7: +1 z_4_7 -1 z_4_5 = +0
 z_group1_4_8: +1 z_4_8 -1 z_4_5 = +0
 z_group1_4_9: +1 z_4_9 -1 z_4_5 = +0
 z_group2_4_11: +1 z_4_11 -1 z_4_10 = +0
 z_group2_4_12: +1 z_4_12 -1 z_4_10 = +0
 pec_to_z0_4: +1 z_4_0 -1 pec_0_4 -1 pec_1_4 -1 pec_2_4 -1 pec_3_4 = +0
 pec_to_z5_4: +1 z_4_5 -1 pec_0_4 -1 pec_1_4 = +0
 pec_to_z10_4: +1 z_4_10 -1 pec_1_4 -1 pec_2_4 -1 pec_3_4 -1 pec_4_4 = +0
 completion_path_4: +1 z_4_4 +1 z_4_9 >= +1
 z_group0_5_1: +1 z_5_1 -1 z_5_0 = +0
 z_group0_5_2: +1 z_5_2 -1 z_5_0 = +0
 z_group0_5_3: +1 z_5_3 -1 z_5_0 = +0
 z_group0_5_4: +1 z_5_4 -1 z_5_0 = +0
 z_group1_5_6: +1 z_5_6 -1 z_5_5 = +0
 z_group1_5_7: +1 z_5_7 -1 z_5_5 = +0
 z_group1_5_8: +1 z_5_8 -1 z_5_5 = +0
 z_group1_5_9: +1 z_5_9 -1 z_5_5 = +0
 z_group2_5_11: +1 z_5_11 -1 z_5_10 = +0
 z_group2_5_12: +1 z_5_12 -1 z_5_10 = +0
 pec_to_z0_5: +1 z_5_0 -1 pec_0_5 -1 pec_1_5 -1 pec_2_5 -1 pec_3_5 = +0
 pec_to_z5_5: +1 z_5_5 -1 pec_0_5 -1 pec_1_5 = +0
 pec_to_z10_5: +1 z_5_10 -1 pec_1_5 -1 pec_2_5 -1 pec_3_5 -1 pec_4_5 = +0
 completion_path_5: +1 z_5_4 +1 z_5_9 >= +1
 z_group0_6_1: +1 z_6_1 -1 z_6_0 = +0
 z_group0_6_2: +1 z_6_2 -1 z_6_0 = +0
 z_group0_6_3: +1 z_6_3 -1 z_6_0 = +0
 z_group0_6_4: +1 z_6_4 -1 z_6_0 = +0
 z_group1_6_6: +1 z_6_6 -1 z_6_5 = +0
 z_group1_6_7: +1 z_6_7 -1 z_6_5 = +0
 z_group1_6_8: +1 z_6_8 -1 z_6_5 = +0
 z_group1_6_9: +1 z_6_9 -1 z_6_5 = +0
 z_group2_6_11: +1 z_6_11 -1 z_6_10 = +0
 z_group2_6_12: +1 z_6_12 -1 z_6_10 = +0
 pec_to_z0_6: +1 z_6_0 -1 pec_0_6 -1 pec_1_6 -1 pec_2_6 -1 pec_3_6 = +0
 pec_to_z5_6: +1 z_6_5 -1 pec_0_6 -1 pec_1_6 = +0
 pec_to_z10_6: +1 z_6_10 -1 pec_1_6 -1 pec_2_6 -1 pec_3_6 -1 pec_4_6 = +0
 completion_path_6: +1 z_6_4 +1 z_6_9 >= +1
 z_group0_7_1: +1 z_7_1 -1 z_7_0 = +0
 z_group0_7_2: +1 z_7_2 -1 z_7_0 = +0
 z_group0_7_3: +1 z_7_3 -1 z_7_0 = +0
 z_group0_7_4: +1 z_7_4 -1 z_7_0 = +0
 z_group1_7_6: +1 z_7_6 -1 z_7_5 = +0
 z_group1_7_7: +1 z_7_7 -1 z_7_5 = +0
 z_group1_7_8: +1 z_7_8 -1 z_7_5 = +0
 z_group1_7_9: +1 z_7_9 -1 z_7_5 = +0
 z_group2_7_11: +1 z_7_11 -1 z_7_10 = +0
 z_group2_7_12: +1 z_7_12 -1 z_7_10 = +0
 pec_to_z0_7: +1 z_7_0 -1 pec_0_7 -1 pec_1_7 -1 pec_2_7 -1 pec_3_7 = +0
 pec_to_z5_7: +1 z_7_5 -1 pec_0_7 -1 pec_1_7 = +0
 pec_to_z10_7: +1 z_7_10 -1 pec_1_7 -1 pec_2_7 -1 pec_3_7 -1 pec_4_7 = +0
 completion_path_7: +1 z_7_4 +1 z_7_9 >= +1
 z_group0_8_1: +1 z_8_1 -1 z_8_0 = +0
 z_group0_8_2: +1 z_8_2 -1 z_8_0 = +0
 z_group0_8_3: +1 z_8_3 -1 z_8_0 = +0
 z_group0_8_4: +1 z_8_4 -1 z_8_0 = +0
 z_group1_8_6: +1 z_8_6 -1 z_8_5 = +0
 z_group1_8_7: +1 z_8_7 -1 z_8_5 = +0
 z_group1_8_8: +1 z_8_8 -1 z_8_5 = +0
 z_group1_8_9: +1 z_8_9 -1 z_8_5 = +0
 z_group2_8_11: +1 z_8_11 -1 z_8_10 = +0
 z_group2_8_12: +1 z_8_12 -1 z_8_10 = +0
 pec_to_z0_8: +1 z_8_0 -1 pec_0_8 -1 pec_1_8 -1 pec_2_8 -1 pec_3_8 = +0
 pec_to_z5_8: +1 z_8_5 -1 pec_0_8 -1 pec_1_8 = +0
 pec_to_z10_8: +1 z_8_10 -1 pec_1_8 -1 pec_2_8 -1 pec_3_8 -1 pec_4_8 = +0
 completion_path_8: +1 z_8_4 +1 z_8_9 >= +1
 z_group0_9_1: +1 z_9_1 -1 z_9_0 = +0
 z_group0_9_2: +1 z_9_2 -1 z_9_0 = +0
 z_group0_9_3: +1 z_9_3 -1 z_9_0 = +0
 z_group0_9_4: +1 z_9_4 -1 z_9_0 = +0
 z_group1_9_6: +1 z_9_6 -1 z_9_5 = +0
 z_group1_9_7: +1 z_9_7 -1 z_9_5 = +0
 z_group1_9_8: +1 z_9_8 -1 z_9_5 = +0
 z_group1_9_9: +1 z_9_9 -1 z_9_5 = +0
 z_group2_9_11: +1 z_9_11 -1 z_9_10 = +0
 z_group2_9_12: +1 z_9_12 -1 z_9_10 = +0
 pec_to_z0_9: +1 z_9_0 -1 pec_0_9 -1 pec_1_9 -1 pec_2_9 -1 pec_3_9 = +0
 pec_to_z5_9: +1 z_9_5 -1 pec_0_9 -1 pec_1_9 = +0
 pec_to_z10_9: +1 z_9_10 -1 pec_1_9 -1 pec_2_9 -1 pec_3_9 -1 pec_4_9 = +0
 completion_path_9: +1 z_9_4 +1 z_9_9 >= +1
 z_group0_10_1: +1 z_10_1 -1 z_10_0 = +0
 z_group0_10_2: +1 z_10_2 -1 z_10_0 = +0
 z_group0_10_3: +1 z_10_3 -1 z_10_0 = +0
 z_group0_10_4: +1 z_10_4 -1 z_10_0 = +0
 z_group1_10_6: +1 z_10_6 -1 z_10_5 = +0
 z_group1_10_7: +1 z_10_7 -1 z_10_5 = +0
 z_group1_10_8: +1 z_10_8 -1 z_10_5 = +0
 z_group1_10_9: +1 z_10_9 -1 z_10_5 = +0
 z_group2_10_11: +1 z_10_11 -1 z_10_10 = +0
 z_group2_10_12: +1 z_10_12 -1 z_10_10 = +0
 pec_to_z0_10: +1 z_10_0 -1 pec_0_10 -1 pec_1_10 -1 pec_2_10 -1 pec_3_10 = +0
 pec_to_z5_10: +1 z_10_5 -1 pec_0_10 -1 pec_1_10 = +0
 pec_to_z10_10: +1 z_10_10 -1 pec_1_10 -1 pec_2_10 -1 pec_3_10 -1 pec_4_10 = +0
 completion_path_10: +1 z_10_4 +1 z_10_9 >= +1
 choose_pm_1: +1 x_1_1 +1 x_1_2 = +1
 choose_pm_2: +1 x_2_1 +1 x_2_2 = +1
 choose_pm_3: +1 x_3_1 +1 x_3_2 = +1
 choose_pm_4: +1 x_4_1 +1 x_4_2 = +1
 choose_pm_5: +1 x_5_1 +1 x_5_2 = +1
 choose_pm_6: +1 x_6_1 +1 x_6_2 = +1
 choose_pm_7: +1 x_7_1 +1 x_7_2 = +1
 choose_pm_8: +1 x_8_1 +1 x_8_2 = +1
 choose_pm_9: +1 x_9_1 +1 x_9_2 = +1
 choose_pm_10: +1 x_10_1 +1 x_10_2 = +1
 pm_order_pq_1_2_1: +1 a_2_0 -1 b_1_12 -10000 x_1_1 -10000 x_2_1 -10000 s_1_2 >= -29994
 pm_order_qp_1_2_1: +1 a_1_0 -1 b_2_12 -10000 x_1_1 -10000 x_2_1 +10000 s_1_2 >= -19994
 pm_order_pq_1_2_2: +1 a_2_0 -1 b_1_12 -10000 x_1_2 -10000 x_2_2 -10000 s_1_2 >= -29994
 pm_order_qp_1_2_2: +1 a_1_0 -1 b_2_12 -10000 x_1_2 -10000 x_2_2 +10000 s_1_2 >= -19994
 pm_order_pq_1_3_1: +1 a_3_0 -1 b_1_12 -10000 x_1_1 -10000 x_3_1 -10000 s_1_3 >= -29994
 pm_order_qp_1_3_1: +1 a_1_0 -1 b_3_12 -10000 x_1_1 -10000 x_3_1 +10000 s_1_3 >= -19994
 pm_order_pq_1_3_2: +1 a_3_0 -1 b_1_12 -10000 x_1_2 -10000 x_3_2 -10000 s_1_3 >= -29994
 pm_order_qp_1_3_2: +1 a_1_0 -1 b_3_12 -10000 x_1_2 -10000 x_3_2 +10000 s_1_3 >= -19994
 pm_order_pq_1_4_1: +1 a_4_0 -1 b_1_12 -10000 x_1_1 -10000 x_4_1 -10000 s_1_4 >= -29994
 pm_order_qp_1_4_1: +1 a_1_0 -1 b_4_12 -10000 x_1_1 -10000 x_4_1 +10000 s_1_4 >= -19994
 pm_order_pq_1_4_2: +1 a_4_0 -1 b_1_12 -10000 x_1_2 -10000 x_4_2 -10000 s_1_4 >= -29994
 pm_order_qp_1_4_2: +1 a_1_0 -1 b_4_12 -10000 x_1_2 -10000 x_4_2 +10000 s_1_4 >= -19994
 pm_order_pq_1_5_1: +1 a_5_0 -1 b_1_12 -10000 x_1_1 -10000 x_5_1 -10000 s_1_5 >= -29994
 pm_order_qp_1_5_1: +1 a_1_0 -1 b_5_12 -10000 x_1_1 -10000 x_5_1 +10000 s_1_5 >= -19994
 pm_order_pq_1_5_2: +1 a_5_0 -1 b_1_12 -10000 x_1_2 -10000 x_5_2 -10000 s_1_5 >= -29994
 pm_order_qp_1_5_2: +1 a_1_0 -1 b_5_12 -10000 x_1_2 -10000 x_5_2 +10000 s_1_5 >= -19994
 pm_order_pq_1_6_1: +1 a_6_0 -1 b_1_12 -10000 x_1_1 -10000 x_6_1 -10000 s_1_6 >= -29994
 pm_order_qp_1_6_1: +1 a_1_0 -1 b_6_12 -10000 x_1_1 -10000 x_6_1 +10000 s_1_6 >= -19994
 pm_order_pq_1_6_2: +1 a_6_0 -1 b_1_12 -10000 x_1_2 -10000 x_6_2 -10000 s_1_6 >= -29994
 pm_order_qp_1_6_2: +1 a_1_0 -1 b_6_12 -10000 x_1_2 -10000 x_6_2 +10000 s_1_6 >= -19994
 pm_order_pq_1_7_1: +1 a_7_0 -1 b_1_12 -10000 x_1_1 -10000 x_7_1 -10000 s_1_7 >= -29994
 pm_order_qp_1_7_1: +1 a_1_0 -1 b_7_12 -10000 x_1_1 -10000 x_7_1 +10000 s_1_7 >= -19994
 pm_order_pq_1_7_2: +1 a_7_0 -1 b_1_12 -10000 x_1_2 -10000 x_7_2 -10000 s_1_7 >= -29994
 pm_order_qp_1_7_2: +1 a_1_0 -1 b_7_12 -10000 x_1_2 -10000 x_7_2 +10000 s_1_7 >= -19994
 pm_order_pq_1_8_1: +1 a_8_0 -1 b_1_12 -10000 x_1_1 -10000 x_8_1 -10000 s_1_8 >= -29994
 pm_order_qp_1_8_1: +1 a_1_0 -1 b_8_12 -10000 x_1_1 -10000 x_8_1 +10000 s_1_8 >= -19994
 pm_order_pq_1_8_2: +1 a_8_0 -1 b_1_12 -10000 x_1_2 -10000 x_8_2 -10000 s_1_8 >= -29994
 pm_order_qp_1_8_2: +1 a_1_0 -1 b_8_12 -10000 x_1_2 -10000 x_8_2 +10000 s_1_8 >= -19994
 pm_order_pq_1_9_1: +1 a_9_0 -1 b_1_12 -10000 x_1_1 -10000 x_9_1 -10000 s_1_9 >= -29994
 pm_order_qp_1_9_1: +1 a_1_0 -1 b_9_12 -10000 x_1_1 -10000 x_9_1 +10000 s_1_9 >= -19994
 pm_order_pq_1_9_2: +1 a_9_0 -1 b_1_12 -10000 x_1_2 -10000 x_9_2 -10000 s_1_9 >= -29994
 pm_order_qp_1_9_2: +1 a_1_0 -1 b_9_12 -10000 x_1_2 -10000 x_9_2 +10000 s_1_9 >= -19994
 pm_order_pq_1_10_1: +1 a_10_0 -1 b_1_12 -10000 x_1_1 -10000 x_10_1 -10000 s_1_10 >= -29994
 pm_order_qp_1_10_1: +1 a_1_0 -1 b_10_12 -10000 x_1_1 -10000 x_10_1 +10000 s_1_10 >= -19994
 pm_order_pq_1_10_2: +1 a_10_0 -1 b_1_12 -10000 x_1_2 -10000 x_10_2 -10000 s_1_10 >= -29994
 pm_order_qp_1_10_2: +1 a_1_0 -1 b_10_12 -10000 x_1_2 -10000 x_10_2 +10000 s_1_10 >= -19994
 pm_order_pq_2_3_1: +1 a_3_0 -1 b_2_12 -10000 x_2_1 -10000 x_3_1 -10000 s_2_3 >= -29994
 pm_order_qp_2_3_1: +1 a_2_0 -1 b_3_12 -10000 x_2_1 -10000 x_3_1 +10000 s_2_3 >= -19994
 pm_order_pq_2_3_2: +1 a_3_0 -1 b_2_12 -10000 x_2_2 -10000 x_3_2 -10000 s_2_3 >= -29994
 pm_order_qp_2_3_2: +1 a_2_0 -1 b_3_12 -10000 x_2_2 -10000 x_3_2 +10000 s_2_3 >= -19994
 pm_order_pq_2_4_1: +1 a_4_0 -1 b_2_12 -10000 x_2_1 -10000 x_4_1 -10000 s_2_4 >= -29994
 pm_order_qp_2_4_1: +1 a_2_0 -1 b_4_12 -10000 x_2_1 -10000 x_4_1 +10000 s_2_4 >= -19994
 pm_order_pq_2_4_2: +1 a_4_0 -1 b_2_12 -10000 x_2_2 -10000 x_4_2 -10000 s_2_4 >= -29994
 pm_order_qp_2_4_2: +1 a_2_0 -1 b_4_12 -10000 x_2_2 -10000 x_4_2 +10000 s_2_4 >= -19994
 pm_order_pq_2_5_1: +1 a_5_0 -1 b_2_12 -10000 x_2_1 -10000 x_5_1 -10000 s_2_5 >= -29994
 pm_order_qp_2_5_1: +1 a_2_0 -1 b_5_12 -10000 x_2_1 -10000 x_5_1 +10000 s_2_5 >= -19994
 pm_order_pq_2_5_2: +1 a_5_0 -1 b_2_12 -10000 x_2_2 -10000 x_5_2 -10000 s_2_5 >= -29994
 pm_order_qp_2_5_2: +1 a_2_0 -1 b_5_12 -10000 x_2_2 -10000 x_5_2 +10000 s_2_5 >= -19994
 pm_order_pq_2_6_1: +1 a_6_0 -1 b_2_12 -10000 x_2_1 -10000 x_6_1 -10000 s_2_6 >= -29994
 pm_order_qp_2_6_1: +1 a_2_0 -1 b_6_12 -10000 x_2_1 -10000 x_6_1 +10000 s_2_6 >= -19994
 pm_order_pq_2_6_2: +1 a_6_0 -1 b_2_12 -10000 x_2_2 -10000 x_6_2 -10000 s_2_6 >= -29994
 pm_order_qp_2_6_2: +1 a_2_0 -1 b_6_12 -10000 x_2_2 -10000 x_6_2 +10000 s_2_6 >= -19994
 pm_order_pq_2_7_1: +1 a_7_0 -1 b_2_12 -10000 x_2_1 -10000 x_7_1 -10000 s_2_7 >= -29994
 pm_order_qp_2_7_1: +1 a_2_0 -1 b_7_12 -10000 x_2_1 -10000 x_7_1 +10000 s_2_7 >= -19994
 pm_order_pq_2_7_2: +1 a_7_0 -1 b_2_12 -10000 x_2_2 -10000 x_7_2 -10000 s_2_7 >= -29994
 pm_order_qp_2_7_2: +1 a_2_0 -1 b_7_12 -10000 x_2_2 -10000 x_7_2 +10000 s_2_7 >= -19994
 pm_order_pq_2_8_1: +1 a_8_0 -1 b_2_12 -10000 x_2_1 -10000 x_8_1 -10000 s_2_8 >= -29994
 pm_order_qp_2_8_1: +1 a_2_0 -1 b_8_12 -10000 x_2_1 -10000 x_8_1 +10000 s_2_8 >= -19994
 pm_order_pq_2_8_2: +1 a_8_0 -1 b_2_12 -10000 x_2_2 -10000 x_8_2 -10000 s_2_8 >= -29994
 pm_order_qp_2_8_2: +1 a_2_0 -1 b_8_12 -10000 x_2_2 -10000 x_8_2 +10000 s_2_8 >= -19994
 pm_order_pq_2_9_1: +1 a_9_0 -1 b_2_12 -10000 x_2_1 -10000 x_9_1 -10000 s_2_9 >= -29994
 pm_order_qp_2_9_1: +1 a_2_0 -1 b_9_12 -10000 x_2_1 -10000 x_9_1 +10000 s_2_9 >= -19994
 pm_order_pq_2_9_2: +1 a_9_0 -1 b_2_12 -10000 x_2_2 -10000 x_9_2 -10000 s_2_9 >= -29994
 pm_order_qp_2_9_2: +1 a_2_0 -1 b_9_12 -10000 x_2_2 -10000 x_9_2 +10000 s_2_9 >= -19994
 pm_order_pq_2_10_1: +1 a_10_0 -1 b_2_12 -10000 x_2_1 -10000 x_10_1 -10000 s_2_10 >= -29994
 pm_order_qp_2_10_1: +1 a_2_0 -1 b_10_12 -10000 x_2_1 -10000 x_10_1 +10000 s_2_10 >= -19994
 pm_order_pq_2_10_2: +1 a_10_0 -1 b_2_12 -10000 x_2_2 -10000 x_10_2 -10000 s_2_10 >= -29994
 pm_order_qp_2_10_2: +1 a_2_0 -1 b_10_12 -10000 x_2_2 -10000 x_10_2 +10000 s_2_10 >= -19994
 pm_order_pq_3_4_1: +1 a_4_0 -1 b_3_12 -10000 x_3_1 -10000 x_4_1 -10000 s_3_4 >= -29994
 pm_order_qp_3_4_1: +1 a_3_0 -1 b_4_12 -10000 x_3_1 -10000 x_4_1 +10000 s_3_4 >= -19994
 pm_order_pq_3_4_2: +1 a_4_0 -1 b_3_12 -10000 x_3_2 -10000 x_4_2 -10000 s_3_4 >= -29994
 pm_order_qp_3_4_2: +1 a_3_0 -1 b_4_12 -10000 x_3_2 -10000 x_4_2 +10000 s_3_4 >= -19994
 pm_order_pq_3_5_1: +1 a_5_0 -1 b_3_12 -10000 x_3_1 -10000 x_5_1 -10000 s_3_5 >= -29994
 pm_order_qp_3_5_1: +1 a_3_0 -1 b_5_12 -10000 x_3_1 -10000 x_5_1 +10000 s_3_5 >= -19994
 pm_order_pq_3_5_2: +1 a_5_0 -1 b_3_12 -10000 x_3_2 -10000 x_5_2 -10000 s_3_5 >= -29994
 pm_order_qp_3_5_2: +1 a_3_0 -1 b_5_12 -10000 x_3_2 -10000 x_5_2 +10000 s_3_5 >= -19994
 pm_order_pq_3_6_1: +1 a_6_0 -1 b_3_12 -10000 x_3_1 -10000 x_6_1 -10000 s_3_6 >= -29994
 pm_order_qp_3_6_1: +1 a_3_0 -1 b_6_12 -10000 x_3_1 -10000 x_6_1 +10000 s_3_6 >= -19994
 pm_order_pq_3_6_2: +1 a_6_0 -1 b_3_12 -10000 x_3_2 -10000 x_6_2 -10000 s_3_6 >= -29994
 pm_order_qp_3_6_2: +1 a_3_0 -1 b_6_12 -10000 x_3_2 -10000 x_6_2 +10000 s_3_6 >= -19994
 pm_order_pq_3_7_1: +1 a_7_0 -1 b_3_12 -10000 x_3_1 -10000 x_7_1 -10000 s_3_7 >= -29994
 pm_order_qp_3_7_1: +1 a_3_0 -1 b_7_12 -10000 x_3_1 -10000 x_7_1 +10000 s_3_7 >= -19994
 pm_order_pq_3_7_2: +1 a_7_0 -1 b_3_12 -10000 x_3_2 -10000 x_7_2 -10000 s_3_7 >= -29994
 pm_order_qp_3_7_2: +1 a_3_0 -1 b_7_12 -10000 x_3_2 -10000 x_7_2 +10000 s_3_7 >= -19994
 pm_order_pq_3_8_1: +1 a_8_0 -1 b_3_12 -10000 x_3_1 -10000 x_8_1 -10000 s_3_8 >= -29994
 pm_order_qp_3_8_1: +1 a_3_0 -1 b_8_12 -10000 x_3_1 -10000 x_8_1 +10000 s_3_8 >= -19994
 pm_order_pq_3_8_2: +1 a_8_0 -1 b_3_12 -10000 x_3_2 -10000 x_8_2 -10000 s_3_8 >= -29994
 pm_order_qp_3_8_2: +1 a_3_0 -1 b_8_12 -10000 x_3_2 -10000 x_8_2 +10000 s_3_8 >= -19994
 pm_order_pq_3_9_1: +1 a_9_0 -1 b_3_12 -10000 x_3_1 -10000 x_9_1 -10000 s_3_9 >= -29994
 pm_order_qp_3_9_1: +1 a_3_0 -1 b_9_12 -10000 x_3_1 -10000 x_9_1 +10000 s_3_9 >= -19994
 pm_order_pq_3_9_2: +1 a_9_0 -1 b_3_12 -10000 x_3_2 -10000 x_9_2 -10000 s_3_9 >= -29994
 pm_order_qp_3_9_2: +1 a_3_0 -1 b_9_12 -10000 x_3_2 -10000 x_9_2 +10000 s_3_9 >= -19994
 pm_order_pq_3_10_1: +1 a_10_0 -1 b_3_12 -10000 x_3_1 -10000 x_10_1 -10000 s_3_10 >= -29994
 pm_order_qp_3_10_1: +1 a_3_0 -1 b_10_12 -10000 x_3_1 -10000 x_10_1 +10000 s_3_10 >= -19994
 pm_order_pq_3_10_2: +1 a_10_0 -1 b_3_12 -10000 x_3_2 -10000 x_10_2 -10000 s_3_10 >= -29994
 pm_order_qp_3_10_2: +1 a_3_0 -1 b_10_12 -10000 x_3_2 -10000 x_10_2 +10000 s_3_10 >= -19994
 pm_order_pq_4_5_1: +1 a_5_0 -1 b_4_12 -10000 x_4_1 -10000 x_5_1 -10000 s_4_5 >= -29994
 pm_order_qp_4_5_1: +1 a_4_0 -1 b_5_12 -10000 x_4_1 -10000 x_5_1 +10000 s_4_5 >= -19994
 pm_order_pq_4_5_2: +1 a_5_0 -1 b_4_12 -10000 x_4_2 -10000 x_5_2 -10000 s_4_5 >= -29994
 pm_order_qp_4_5_2: +1 a_4_0 -1 b_5_12 -10000 x_4_2 -10000 x_5_2 +10000 s_4_5 >= -19994
 pm_order_pq_4_6_1: +1 a_6_0 -1 b_4_12 -10000 x_4_1 -10000 x_6_1 -10000 s_4_6 >= -29994
 pm_order_qp_4_6_1: +1 a_4_0 -1 b_6_12 -10000 x_4_1 -10000 x_6_1 +10000 s_4_6 >= -19994
 pm_order_pq_4_6_2: +1 a_6_0 -1 b_4_12 -10000 x_4_2 -10000 x_6_2 -10000 s_4_6 >= -29994
 pm_order_qp_4_6_2: +1 a_4_0 -1 b_6_12 -10000 x_4_2 -10000 x_6_2 +10000 s_4_6 >= -19994
 pm_order_pq_4_7_1: +1 a_7_0 -1 b_4_12 -10000 x_4_1 -10000 x_7_1 -10000 s_4_7 >= -29994
 pm_order_qp_4_7_1: +1 a_4_0 -1 b_7_12 -10000 x_4_1 -10000 x_7_1 +10000 s_4_7 >= -19994
 pm_order_pq_4_7_2: +1 a_7_0 -1 b_4_12 -10000 x_4_2 -10000 x_7_2 -10000 s_4_7 >= -29994
 pm_order_qp_4_7_2: +1 a_4_0 -1 b_7_12 -10000 x_4_2 -10000 x_7_2 +10000 s_4_7 >= -19994
 pm_order_pq_4_8_1: +1 a_8_0 -1 b_4_12 -10000 x_4_1 -10000 x_8_1 -10000 s_4_8 >= -29994
 pm_order_qp_4_8_1: +1 a_4_0 -1 b_8_12 -10000 x_4_1 -10000 x_8_1 +10000 s_4_8 >= -19994
 pm_order_pq_4_8_2: +1 a_8_0 -1 b_4_12 -10000 x_4_2 -10000 x_8_2 -10000 s_4_8 >= -29994
 pm_order_qp_4_8_2: +1 a_4_0 -1 b_8_12 -10000 x_4_2 -10000 x_8_2 +10000 s_4_8 >= -19994
 pm_order_pq_4_9_1: +1 a_9_0 -1 b_4_12 -10000 x_4_1 -10000 x_9_1 -10000 s_4_9 >= -29994
 pm_order_qp_4_9_1: +1 a_4_0 -1 b_9_12 -10000 x_4_1 -10000 x_9_1 +10000 s_4_9 >= -19994
 pm_order_pq_4_9_2: +1 a_9_0 -1 b_4_12 -10000 x_4_2 -10000 x_9_2 -10000 s_4_9 >= -29994
 pm_order_qp_4_9_2: +1 a_4_0 -1 b_9_12 -10000 x_4_2 -10000 x_9_2 +10000 s_4_9 >= -19994
 pm_order_pq_4_10_1: +1 a_10_0 -1 b_4_12 -10000 x_4_1 -10000 x_10_1 -10000 s_4_10 >= -29994
 pm_order_qp_4_10_1: +1 a_4_0 -1 b_10_12 -10000 x_4_1 -10000 x_10_1 +10000 s_4_10 >= -19994
 pm_order_pq_4_10_2: +1 a_10_0 -1 b_4_12 -10000 x_4_2 -10000 x_10_2 -10000 s_4_10 >= -29994
 pm_order_qp_4_10_2: +1 a_4_0 -1 b_10_12 -10000 x_4_2 -10000 x_10_2 +10000 s_4_10 >= -19994
 pm_order_pq_5_6_1: +1 a_6_0 -1 b_5_12 -10000 x_5_1 -10000 x_6_1 -10000 s_5_6 >= -29994
 pm_order_qp_5_6_1: +1 a_5_0 -1 b_6_12 -10000 x_5_1 -10000 x_6_1 +10000 s_5_6 >= -19994
 pm_order_pq_5_6_2: +1 a_6_0 -1 b_5_12 -10000 x_5_2 -10000 x_6_2 -10000 s_5_6 >= -29994
 pm_order_qp_5_6_2: +1 a_5_0 -1 b_6_12 -10000 x_5_2 -10000 x_6_2 +10000 s_5_6 >= -19994
 pm_order_pq_5_7_1: +1 a_7_0 -1 b_5_12 -10000 x_5_1 -10000 x_7_1 -10000 s_5_7 >= -29994
 pm_order_qp_5_7_1: +1 a_5_0 -1 b_7_12 -10000 x_5_1 -10000 x_7_1 +10000 s_5_7 >= -19994
 pm_order_pq_5_7_2: +1 a_7_0 -1 b_5_12 -10000 x_5_2 -10000 x_7_2 -10000 s_5_7 >= -29994
 pm_order_qp_5_7_2: +1 a_5_0 -1 b_7_12 -10000 x_5_2 -10000 x_7_2 +10000 s_5_7 >= -19994
 pm_order_pq_5_8_1: +1 a_8_0 -1 b_5_12 -10000 x_5_1 -10000 x_8_1 -10000 s_5_8 >= -29994
 pm_order_qp_5_8_1: +1 a_5_0 -1 b_8_12 -10000 x_5_1 -10000 x_8_1 +10000 s_5_8 >= -19994
 pm_order_pq_5_8_2: +1 a_8_0 -1 b_5_12 -10000 x_5_2 -10000 x_8_2 -10000 s_5_8 >= -29994
 pm_order_qp_5_8_2: +1 a_5_0 -1 b_8_12 -10000 x_5_2 -10000 x_8_2 +10000 s_5_8 >= -19994
 pm_order_pq_5_9_1: +1 a_9_0 -1 b_5_12 -10000 x_5_1 -10000 x_9_1 -10000 s_5_9 >= -29994
 pm_order_qp_5_9_1: +1 a_5_0 -1 b_9_12 -10000 x_5_1 -10000 x_9_1 +10000 s_5_9 >= -19994
 pm_order_pq_5_9_2: +1 a_9_0 -1 b_5_12 -10000 x_5_2 -10000 x_9_2 -10000 s_5_9 >= -29994
 pm_order_qp_5_9_2: +1 a_5_0 -1 b_9_12 -10000 x_5_2 -10000 x_9_2 +10000 s_5_9 >= -19994
 pm_order_pq_5_10_1: +1 a_10_0 -1 b_5_12 -10000 x_5_1 -10000 x_10_1 -10000 s_5_10 >= -29994
 pm_order_qp_5_10_1: +1 a_5_0 -1 b_10_12 -10000 x_5_1 -10000 x_10_1 +10000 s_5_10 >= -19994
 pm_order_pq_5_10_2: +1 a_10_0 -1 b_5_12 -10000 x_5_2 -10000 x_10_2 -10000 s_5_10 >= -29994
 pm_order_qp_5_10_2: +1 a_5_0 -1 b_10_12 -10000 x_5_2 -10000 x_10_2 +10000 s_5_10 >= -19994
 pm_order_pq_6_7_1: +1 a_7_0 -1 b_6_12 -10000 x_6_1 -10000 x_7_1 -10000 s_6_7 >= -29994
 pm_order_qp_6_7_1: +1 a_6_0 -1 b_7_12 -10000 x_6_1 -10000 x_7_1 +10000 s_6_7 >= -19994
 pm_order_pq_6_7_2: +1 a_7_0 -1 b_6_12 -10000 x_6_2 -10000 x_7_2 -10000 s_6_7 >= -29994
 pm_order_qp_6_7_2: +1 a_6_0 -1 b_7_12 -10000 x_6_2 -10000 x_7_2 +10000 s_6_7 >= -19994
 pm_order_pq_6_8_1: +1 a_8_0 -1 b_6_12 -10000 x_6_1 -10000 x_8_1 -10000 s_6_8 >= -29994
 pm_order_qp_6_8_1: +1 a_6_0 -1 b_8_12 -10000 x_6_1 -10000 x_8_1 +10000 s_6_8 >= -19994
 pm_order_pq_6_8_2: +1 a_8_0 -1 b_6_12 -10000 x_6_2 -10000 x_8_2 -10000 s_6_8 >= -29994
 pm_order_qp_6_8_2: +1 a_6_0 -1 b_8_12 -10000 x_6_2 -10000 x_8_2 +10000 s_6_8 >= -19994
 pm_order_pq_6_9_1: +1 a_9_0 -1 b_6_12 -10000 x_6_1 -10000 x_9_1 -10000 s_6_9 >= -29994
 pm_order_qp_6_9_1: +1 a_6_0 -1 b_9_12 -10000 x_6_1 -10000 x_9_1 +10000 s_6_9 >= -19994
 pm_order_pq_6_9_2: +1 a_9_0 -1 b_6_12 -10000 x_6_2 -10000 x_9_2 -10000 s_6_9 >= -29994
 pm_order_qp_6_9_2: +1 a_6_0 -1 b_9_12 -10000 x_6_2 -10000 x_9_2 +10000 s_6_9 >= -19994
 pm_order_pq_6_10_1: +1 a_10_0 -1 b_6_12 -10000 x_6_1 -10000 x_10_1 -10000 s_6_10 >= -29994
 pm_order_qp_6_10_1: +1 a_6_0 -1 b_10_12 -10000 x_6_1 -10000 x_10_1 +10000 s_6_10 >= -19994
 pm_order_pq_6_10_2: +1 a_10_0 -1 b_6_12 -10000 x_6_2 -10000 x_10_2 -10000 s_6_10 >= -29994
 pm_order_qp_6_10_2: +1 a_6_0 -1 b_10_12 -10000 x_6_2 -10000 x_10_2 +10000 s_6_10 >= -19994
 pm_order_pq_7_8_1: +1 a_8_0 -1 b_7_12 -10000 x_7_1 -10000 x_8_1 -10000 s_7_8 >= -29994
 pm_order_qp_7_8_1: +1 a_7_0 -1 b_8_12 -10000 x_7_1 -10000 x_8_1 +10000 s_7_8 >= -19994
 pm_order_pq_7_8_2: +1 a_8_0 -1 b_7_12 -10000 x_7_2 -10000 x_8_2 -10000 s_7_8 >= -29994
 pm_order_qp_7_8_2: +1 a_7_0 -1 b_8_12 -10000 x_7_2 -10000 x_8_2 +10000 s_7_8 >= -19994
 pm_order_pq_7_9_1: +1 a_9_0 -1 b_7_12 -10000 x_7_1 -10000 x_9_1 -10000 s_7_9 >= -29994
 pm_order_qp_7_9_1: +1 a_7_0 -1 b_9_12 -10000 x_7_1 -10000 x_9_1 +10000 s_7_9 >= -19994
 pm_order_pq_7_9_2: +1 a_9_0 -1 b_7_12 -10000 x_7_2 -10000 x_9_2 -10000 s_7_9 >= -29994
 pm_order_qp_7_9_2: +1 a_7_0 -1 b_9_12 -10000 x_7_2 -10000 x_9_2 +10000 s_7_9 >= -19994
 pm_order_pq_7_10_1: +1 a_10_0 -1 b_7_12 -10000 x_7_1 -10000 x_10_1 -10000 s_7_10 >= -29994
 pm_order_qp_7_10_1: +1 a_7_0 -1 b_10_12 -10000 x_7_1 -10000 x_10_1 +10000 s_7_10 >= -19994
 pm_order_pq_7_10_2: +1 a_10_0 -1 b_7_12 -10000 x_7_2 -10000 x_10_2 -10000 s_7_10 >= -29994
 pm_order_qp_7_10_2: +1 a_7_0 -1 b_10_12 -10000 x_7_2 -10000 x_10_2 +10000 s_7_10 >= -19994
 pm_order_pq_8_9_1: +1 a_9_0 -1 b_8_12 -10000 x_8_1 -10000 x_9_1 -10000 s_8_9 >= -29994
 pm_order_qp_8_9_1: +1 a_8_0 -1 b_9_12 -10000 x_8_1 -10000 x_9_1 +10000 s_8_9 >= -19994
 pm_order_pq_8_9_2: +1 a_9_0 -1 b_8_12 -10000 x_8_2 -10000 x_9_2 -10000 s_8_9 >= -29994
 pm_order_qp_8_9_2: +1 a_8_0 -1 b_9_12 -10000 x_8_2 -10000 x_9_2 +10000 s_8_9 >= -19994
 pm_order_pq_8_10_1: +1 a_10_0 -1 b_8_12 -10000 x_8_1 -10000 x_10_1 -10000 s_8_10 >= -29994
 pm_order_qp_8_10_1: +1 a_8_0 -1 b_10_12 -10000 x_8_1 -10000 x_10_1 +10000 s_8_10 >= -19994
 pm_order_pq_8_10_2: +1 a_10_0 -1 b_8_12 -10000 x_8_2 -10000 x_10_2 -10000 s_8_10 >= -29994
 pm_order_qp_8_10_2: +1 a_8_0 -1 b_10_12 -10000 x_8_2 -10000 x_10_2 +10000 s_8_10 >= -19994
 pm_order_pq_9_10_1: +1 a_10_0 -1 b_9_12 -10000 x_9_1 -10000 x_10_1 -10000 s_9_10 >= -29994
 pm_order_qp_9_10_1: +1 a_9_0 -1 b_10_12 -10000 x_9_1 -10000 x_10_1 +10000 s_9_10 >= -19994
 pm_order_pq_9_10_2: +1 a_10_0 -1 b_9_12 -10000 x_9_2 -10000 x_10_2 -10000 s_9_10 >= -29994
 pm_order_qp_9_10_2: +1 a_9_0 -1 b_10_12 -10000 x_9_2 -10000 x_10_2 +10000 s_9_10 >= -19994
 mode2_heavy_pec_1: +2 y_2_1 -1 pec_2_1 -1 pec_3_1 -1 pec_4_1 -1 pec_2_2 -1 pec_3_2 -1 pec_4_2 -1 pec_2_3
  -1 pec_3_3 -1 pec_4_3 -1 pec_2_4 -1 pec_3_4 -1 pec_4_4 -1 pec_2_5 -1 pec_3_5 -1 pec_4_5 -1 pec_2_6 -1 pec_3_6
  -1 pec_4_6 -1 pec_2_7 -1 pec_3_7 -1 pec_4_7 -1 pec_2_8 -1 pec_3_8 -1 pec_4_8 -1 pec_2_9 -1 pec_3_9 -1 pec_4_9
  -1 pec_2_10 -1 pec_3_10 -1 pec_4_10 <= +0
 mode2_heavy_pec_2: +2 y_2_2 -1 pec_2_1 -1 pec_3_1 -1 pec_4_1 -1 pec_2_2 -1 pec_3_2 -1 pec_4_2 -1 pec_2_3
  -1 pec_3_3 -1 pec_4_3 -1 pec_2_4 -1 pec_3_4 -1 pec_4_4 -1 pec_2_5 -1 pec_3_5 -1 pec_4_5 -1 pec_2_6 -1 pec_3_6
  -1 pec_4_6 -1 pec_2_7 -1 pec_3_7 -1 pec_4_7 -1 pec_2_8 -1 pec_3_8 -1 pec_4_8 -1 pec_2_9 -1 pec_3_9 -1 pec_4_9
  -1 pec_2_10 -1 pec_3_10 -1 pec_4_10 <= +0
 mode2_heavy_pec_3: +2 y_2_3 -1 pec_2_1 -1 pec_3_1 -1 pec_4_1 -1 pec_2_2 -1 pec_3_2 -1 pec_4_2 -1 pec_2_3
  -1 pec_3_3 -1 pec_4_3 -1 pec_2_4 -1 pec_3_4 -1 pec_4_4 -1 pec_2_5 -1 pec_3_5 -1 pec_4_5 -1 pec_2_6 -1 pec_3_6
  -1 pec_4_6 -1 pec_2_7 -1 pec_3_7 -1 pec_4_7 -1 pec_2_8 -1 pec_3_8 -1 pec_4_8 -1 pec_2_9 -1 pec_3_9 -1 pec_4_9
  -1 pec_2_10 -1 pec_3_10 -1 pec_4_10 <= +0
 mode2_heavy_pec_4: +2 y_2_4 -1 pec_2_1 -1 pec_3_1 -1 pec_4_1 -1 pec_2_2 -1 pec_3_2 -1 pec_4_2 -1 pec_2_3
  -1 pec_3_3 -1 pec_4_3 -1 pec_2_4 -1 pec_3_4 -1 pec_4_4 -1 pec_2_5 -1 pec_3_5 -1 pec_4_5 -1 pec_2_6 -1 pec_3_6
  -1 pec_4_6 -1 pec_2_7 -1 pec_3_7 -1 pec_4_7 -1 pec_2_8 -1 pec_3_8 -1 pec_4_8 -1 pec_2_9 -1 pec_3_9 -1 pec_4_9
  -1 pec_2_10 -1 pec_3_10 -1 pec_4_10 <= +0
 mode2_heavy_pec_5: +2 y_2_5 -1 pec_2_1 -1 pec_3_1 -1 pec_4_1 -1 pec_2_2 -1 pec_3_2 -1 pec_4_2 -1 pec_2_3
  -1 pec_3_3 -1 pec_4_3 -1 pec_2_4 -1 pec_3_4 -1 pec_4_4 -1 pec_2_5 -1 pec_3_5 -1 pec_4_5 -1 pec_2_6 -1 pec_3_6
  -1 pec_4_6 -1 pec_2_7 -1 pec_3_7 -1 pec_4_7 -1 pec_2_8 -1 pec_3_8 -1 pec_4_8 -1 pec_2_9 -1 pec_3_9 -1 pec_4_9
  -1 pec_2_10 -1 pec_3_10 -1 pec_4_10 <= +0
 mode2_heavy_pec_6: +2 y_2_6 -1 pec_2_1 -1 pec_3_1 -1 pec_4_1 -1 pec_2_2 -1 pec_3_2 -1 pec_4_2 -1 pec_2_3
  -1 pec_3_3 -1 pec_4_3 -1 pec_2_4 -1 pec_3_4 -1 pec_4_4 -1 pec_2_5 -1 pec_3_5 -1 pec_4_5 -1 pec_2_6 -1 pec_3_6
  -1 pec_4_6 -1 pec_2_7 -1 pec_3_7 -1 pec_4_7 -1 pec_2_8 -1 pec_3_8 -1 pec_4_8 -1 pec_2_9 -1 pec_3_9 -1 pec_4_9
  -1 pec_2_10 -1 pec_3_10 -1 pec_4_10 <= +0
 mode2_heavy_pec_7: +2 y_2_7 -1 pec_2_1 -1 pec_3_1 -1 pec_4_1 -1 pec_2_2 -1 pec_3_2 -1 pec_4_2 -1 pec_2_3
  -1 pec_3_3 -1 pec_4_3 -1 pec_2_4 -1 pec_3_4 -1 pec_4_4 -1 pec_2_5 -1 pec_3_5 -1 pec_4_5 -1 pec_2_6 -1 pec_3_6
  -1 pec_4_6 -1 pec_2_7 -1 pec_3_7 -1 pec_4_7 -1 pec_2_8 -1 pec_3_8 -1 pec_4_8 -1 pec_2_9 -1 pec_3_9 -1 pec_4_9
  -1 pec_2_10 -1 pec_3_10 -1 pec_4_10 <= +0
 mode2_heavy_pec_8: +2 y_2_8 -1 pec_2_1 -1 pec_3_1 -1 pec_4_1 -1 pec_2_2 -1 pec_3_2 -1 pec_4_2 -1 pec_2_3
  -1 pec_3_3 -1 pec_4_3 -1 pec_2_4 -1 pec_3_4 -1 pec_4_4 -1 pec_2_5 -1 pec_3_5 -1 pec_4_5 -1 pec_2_6 -1 pec_3_6
  -1 pec_4_6 -1 pec_2_7 -1 pec_3_7 -1 pec_4_7 -1 pec_2_8 -1 pec_3_8 -1 pec_4_8 -1 pec_2_9 -1 pec_3_9 -1 pec_4_9
  -1 pec_2_10 -1 pec_3_10 -1 pec_4_10 <= +0
 mode2_heavy_pec_9: +2 y_2_9 -1 pec_2_1 -1 pec_3_1 -1 pec_4_1 -1 pec_2_2 -1 pec_3_2 -1 pec_4_2 -1 pec_2_3
  -1 pec_3_3 -1 pec_4_3 -1 pec_2_4 -1 pec_3_4 -1 pec_4_4 -1 pec_2_5 -1 pec_3_5 -1 pec_4_5 -1 pec_2_6 -1 pec_3_6
  -1 pec_4_6 -1 pec_2_7 -1 pec_3_7 -1 pec_4_7 -1 pec_2_8 -1 pec_3_8 -1 pec_4_8 -1 pec_2_9 -1 pec_3_9 -1 pec_4_9
  -1 pec_2_10 -1 pec_3_10 -1 pec_4_10 <= +0
 mode2_heavy_pec_10: +2 y_2_10 -1 pec_2_1 -1 pec_3_1 -1 pec_4_1 -1 pec_2_2 -1 pec_3_2 -1 pec_4_2 -1 pec_2_3
  -1 pec_3_3 -1 pec_4_3 -1 pec_2_4 -1 pec_3_4 -1 pec_4_4 -1 pec_2_5 -1 pec_3_5 -1 pec_4_5 -1 pec_2_6 -1 pec_3_6
  -1 pec_4_6 -1 pec_2_7 -1 pec_3_7 -1 pec_4_7 -1 pec_2_8 -1 pec_3_8 -1 pec_4_8 -1 pec_2_9 -1 pec_3_9 -1 pec_4_9
  -1 pec_2_10 -1 pec_3_10 -1 pec_4_10 <= +0
 step_lb_1_0: +1 b_1_0 -1 a_1_0 -10000 z_1_0 >= -9965
 step_ub_1_0: +1 b_1_0 -1 a_1_0 +10000 z_1_0 <= +10050
 step_lb_1_1: +1 b_1_1 -1 a_1_1 -10000 z_1_1 >= -9945
 step_ub_1_1: +1 b_1_1 -1 a_1_1 +10000 z_1_1 <= +10070
 step_lb_transfer_1_2: +1 b_1_2 -1 a_1_2 -40 y_1_1 -60 y_2_1 -10000 z_1_2 >= -10000
 step_ub_transfer_1_2: +1 b_1_2 -1 a_1_2 -40 y_1_1 -60 y_2_1 +10000 z_1_2 <= +10020
 step_lb_1_3: +1 b_1_3 -1 a_1_3 -10000 z_1_3 >= -9955
 step_ub_1_3: +1 b_1_3 -1 a_1_3 +10000 z_1_3 <= +10060
 step_lb_1_4: +1 b_1_4 -1 a_1_4 -10000 z_1_4 >= -9970
 step_ub_1_4: +1 b_1_4 -1 a_1_4 +10000 z_1_4 <= +10042
 step_lb_1_5: +1 b_1_5 -1 a_1_5 -10000 z_1_5 >= -9960
 step_ub_1_5: +1 b_1_5 -1 a_1_5 +10000 z_1_5 <= +10055
 step_lb_1_6: +1 b_1_6 -1 a_1_6 -10000 z_1_6 >= -9950
 step_ub_1_6: +1 b_1_6 -1 a_1_6 +10000 z_1_6 <= +10065
 step_lb_transfer_1_7: +1 b_1_7 -1 a_1_7 -40 y_1_1 -60 y_2_1 -10000 z_1_7 >= -10000
 step_ub_transfer_1_7: +1 b_1_7 -1 a_1_7 -40 y_1_1 -60 y_2_1 +10000 z_1_7 <= +10020
 step_lb_1_8: +1 b_1_8 -1 a_1_8 -10000 z_1_8 >= -9958
 step_ub_1_8: +1 b_1_8 -1 a_1_8 +10000 z_1_8 <= +10057
 step_lb_1_9: +1 b_1_9 -1 a_1_9 -10000 z_1_9 >= -9972
 step_ub_1_9: +1 b_1_9 -1 a_1_9 +10000 z_1_9 <= +10040
 step_lb_1_10: +1 b_1_10 -1 a_1_10 -10000 z_1_10 >= -9962
 step_ub_1_10: +1 b_1_10 -1 a_1_10 +10000 z_1_10 <= +10053
 step_lb_transfer_1_11: +1 b_1_11 -1 a_1_11 -40 y_1_1 -60 y_2_1 -10000 z_1_11 >= -10000
 step_ub_transfer_1_11: +1 b_1_11 -1 a_1_11 -40 y_1_1 -60 y_2_1 +10000 z_1_11 <= +10020
 step_lb_1_12: +1 b_1_12 -1 a_1_12 -10000 z_1_12 >= -9975
 step_ub_1_12: +1 b_1_12 -1 a_1_12 +10000 z_1_12 <= +10037
 step_lb_2_0: +1 b_2_0 -1 a_2_0 -10000 z_2_0 >= -9965
 step_ub_2_0: +1 b_2_0 -1 a_2_0 +10000 z_2_0 <= +10050
 step_lb_2_1: +1 b_2_1 -1 a_2_1 -10000 z_2_1 >= -9945
 step_ub_2_1: +1 b_2_1 -1 a_2_1 +10000 z_2_1 <= +10070
 step_lb_transfer_2_2: +1 b_2_2 -1 a_2_2 -40 y_1_2 -60 y_2_2 -10000 z_2_2 >= -10000
 step_ub_transfer_2_2: +1 b_2_2 -1 a_2_2 -40 y_1_2 -60 y_2_2 +10000 z_2_2 <= +10020
 step_lb_2_3: +1 b_2_3 -1 a_2_3 -10000 z_2_3 >= -9955
 step_ub_2_3: +1 b_2_3 -1 a_2_3 +10000 z_2_3 <= +10060
 step_lb_2_4: +1 b_2_4 -1 a_2_4 -10000 z_2_4 >= -9970
 step_ub_2_4: +1 b_2_4 -1 a_2_4 +10000 z_2_4 <= +10042
 step_lb_2_5: +1 b_2_5 -1 a_2_5 -10000 z_2_5 >= -9960
 step_ub_2_5: +1 b_2_5 -1 a_2_5 +10000 z_2_5 <= +10055
 step_lb_2_6: +1 b_2_6 -1 a_2_6 -10000 z_2_6 >= -9950
 step_ub_2_6: +1 b_2_6 -1 a_2_6 +10000 z_2_6 <= +10065
 step_lb_transfer_2_7: +1 b_2_7 -1 a_2_7 -40 y_1_2 -60 y_2_2 -10000 z_2_7 >= -10000
 step_ub_transfer_2_7: +1 b_2_7 -1 a_2_7 -40 y_1_2 -60 y_2_2 +10000 z_2_7 <= +10020
 step_lb_2_8: +1 b_2_8 -1 a_2_8 -10000 z_2_8 >= -9958
 step_ub_2_8: +1 b_2_8 -1 a_2_8 +10000 z_2_8 <= +10057
 step_lb_2_9: +1 b_2_9 -1 a_2_9 -10000 z_2_9 >= -9972
 step_ub_2_9: +1 b_2_9 -1 a_2_9 +10000 z_2_9 <= +10040
 step_lb_2_10: +1 b_2_10 -1 a_2_10 -10000 z_2_10 >= -9962
 step_ub_2_10: +1 b_2_10 -1 a_2_10 +10000 z_2_10 <= +10053
 step_lb_transfer_2_11: +1 b_2_11 -1 a_2_11 -40 y_1_2 -60 y_2_2 -10000 z_2_11 >= -10000
 step_ub_transfer_2_11: +1 b_2_11 -1 a_2_11 -40 y_1_2 -60 y_2_2 +10000 z_2_11 <= +10020
 step_lb_2_12: +1 b_2_12 -1 a_2_12 -10000 z_2_12 >= -9975
 step_ub_2_12: +1 b_2_12 -1 a_2_12 +10000 z_2_12 <= +10037
 step_lb_3_0: +1 b_3_0 -1 a_3_0 -10000 z_3_0 >= -9965
 step_ub_3_0: +1 b_3_0 -1 a_3_0 +10000 z_3_0 <= +10050
 step_lb_3_1: +1 b_3_1 -1 a_3_1 -10000 z_3_1 >= -9945
 step_ub_3_1: +1 b_3_1 -1 a_3_1 +10000 z_3_1 <= +10070
 step_lb_transfer_3_2: +1 b_3_2 -1 a_3_2 -40 y_1_3 -60 y_2_3 -10000 z_3_2 >= -10000
 step_ub_transfer_3_2: +1 b_3_2 -1 a_3_2 -40 y_1_3 -60 y_2_3 +10000 z_3_2 <= +10020
 step_lb_3_3: +1 b_3_3 -1 a_3_3 -10000 z_3_3 >= -9955
 step_ub_3_3: +1 b_3_3 -1 a_3_3 +10000 z_3_3 <= +10060
 step_lb_3_4: +1 b_3_4 -1 a_3_4 -10000 z_3_4 >= -9970
 step_ub_3_4: +1 b_3_4 -1 a_3_4 +10000 z_3_4 <= +10042
 step_lb_3_5: +1 b_3_5 -1 a_3_5 -10000 z_3_5 >= -9960
 step_ub_3_5: +1 b_3_5 -1 a_3_5 +10000 z_3_5 <= +10055
 step_lb_3_6: +1 b_3_6 -1 a_3_6 -10000 z_3_6 >= -9950
 step_ub_3_6: +1 b_3_6 -1 a_3_6 +10000 z_3_6 <= +10065
 step_lb_transfer_3_7: +1 b_3_7 -1 a_3_7 -40 y_1_3 -60 y_2_3 -10000 z_3_7 >= -10000
 step_ub_transfer_3_7: +1 b_3_7 -1 a_3_7 -40 y_1_3 -60 y_2_3 +10000 z_3_7 <= +10020
 step_lb_3_8: +1 b_3_8 -1 a_3_8 -10000 z_3_8 >= -9958
 step_ub_3_8: +1 b_3_8 -1 a_3_8 +10000 z_3_8 <= +10057
 step_lb_3_9: +1 b_3_9 -1 a_3_9 -10000 z_3_9 >= -9972
 step_ub_3_9: +1 b_3_9 -1 a_3_9 +10000 z_3_9 <= +10040
 step_lb_3_10: +1 b_3_10 -1 a_3_10 -10000 z_3_10 >= -9962
 step_ub_3_10: +1 b_3_10 -1 a_3_10 +10000 z_3_10 <= +10053
 step_lb_transfer_3_11: +1 b_3_11 -1 a_3_11 -40 y_1_3 -60 y_2_3 -10000 z_3_11 >= -10000
 step_ub_transfer_3_11: +1 b_3_11 -1 a_3_11 -40 y_1_3 -60 y_2_3 +10000 z_3_11 <= +10020
 step_lb_3_12: +1 b_3_12 -1 a_3_12 -10000 z_3_12 >= -9975
 step_ub_3_12: +1 b_3_12 -1 a_3_12 +10000 z_3_12 <= +10037
 step_lb_4_0: +1 b_4_0 -1 a_4_0 -10000 z_4_0 >= -9965
 step_ub_4_0: +1 b_4_0 -1 a_4_0 +10000 z_4_0 <= +10050
 step_lb_4_1: +1 b_4_1 -1 a_4_1 -10000 z_4_1 >= -9945
 step_ub_4_1: +1 b_4_1 -1 a_4_1 +10000 z_4_1 <= +10070
 step_lb_transfer_4_2: +1 b_4_2 -1 a_4_2 -40 y_1_4 -60 y_2_4 -10000 z_4_2 >= -10000
 step_ub_transfer_4_2: +1 b_4_2 -1 a_4_2 -40 y_1_4 -60 y_2_4 +10000 z_4_2 <= +10020
 step_lb_4_3: +1 b_4_3 -1 a_4_3 -10000 z_4_3 >= -9955
 step_ub_4_3: +1 b_4_3 -1 a_4_3 +10000 z_4_3 <= +10060
 step_lb_4_4: +1 b_4_4 -1 a_4_4 -10000 z_4_4 >= -9970
 step_ub_4_4: +1 b_4_4 -1 a_4_4 +10000 z_4_4 <= +10042
 step_lb_4_5: +1 b_4_5 -1 a_4_5 -10000 z_4_5 >= -9960
 step_ub_4_5: +1 b_4_5 -1 a_4_5 +10000 z_4_5 <= +10055
 step_lb_4_6: +1 b_4_6 -1 a_4_6 -10000 z_4_6 >= -9950
 step_ub_4_6: +1 b_4_6 -1 a_4_6 +10000 z_4_6 <= +10065
 step_lb_transfer_4_7: +1 b_4_7 -1 a_4_7 -40 y_1_4 -60 y_2_4 -10000 z_4_7 >= -10000
 step_ub_transfer_4_7: +1 b_4_7 -1 a_4_7 -40 y_1_4 -60 y_2_4 +10000 z_4_7 <= +10020
 step_lb_4_8: +1 b_4_8 -1 a_4_8 -10000 z_4_8 >= -9958
 step_ub_4_8: +1 b_4_8 -1 a_4_8 +10000 z_4_8 <= +10057
 step_lb_4_9: +1 b_4_9 -1 a_4_9 -10000 z_4_9 >= -9972
 step_ub_4_9: +1 b_4_9 -1 a_4_9 +10000 z_4_9 <= +10040
 step_lb_4_10: +1 b_4_10 -1 a_4_10 -10000 z_4_10 >= -9962
 step_ub_4_10: +1 b_4_10 -1 a_4_10 +10000 z_4_10 <= +10053
 step_lb_transfer_4_11: +1 b_4_11 -1 a_4_11 -40 y_1_4 -60 y_2_4 -10000 z_4_11 >= -10000
 step_ub_transfer_4_11: +1 b_4_11 -1 a_4_11 -40 y_1_4 -60 y_2_4 +10000 z_4_11 <= +10020
 step_lb_4_12: +1 b_4_12 -1 a_4_12 -10000 z_4_12 >= -9975
 step_ub_4_12: +1 b_4_12 -1 a_4_12 +10000 z_4_12 <= +10037
 step_lb_5_0: +1 b_5_0 -1 a_5_0 -10000 z_5_0 >= -9965
 step_ub_5_0: +1 b_5_0 -1 a_5_0 +10000 z_5_0 <= +10050
 step_lb_5_1: +1 b_5_1 -1 a_5_1 -10000 z_5_1 >= -9945
 step_ub_5_1: +1 b_5_1 -1 a_5_1 +10000 z_5_1 <= +10070
 step_lb_transfer_5_2: +1 b_5_2 -1 a_5_2 -40 y_1_5 -60 y_2_5 -10000 z_5_2 >= -10000
 step_ub_transfer_5_2: +1 b_5_2 -1 a_5_2 -40 y_1_5 -60 y_2_5 +10000 z_5_2 <= +10020
 step_lb_5_3: +1 b_5_3 -1 a_5_3 -10000 z_5_3 >= -9955
 step_ub_5_3: +1 b_5_3 -1 a_5_3 +10000 z_5_3 <= +10060
 step_lb_5_4: +1 b_5_4 -1 a_5_4 -10000 z_5_4 >= -9970
 step_ub_5_4: +1 b_5_4 -1 a_5_4 +10000 z_5_4 <= +10042
 step_lb_5_5: +1 b_5_5 -1 a_5_5 -10000 z_5_5 >= -9960
 step_ub_5_5: +1 b_5_5 -1 a_5_5 +10000 z_5_5 <= +10055
 step_lb_5_6: +1 b_5_6 -1 a_5_6 -10000 z_5_6 >= -9950
 step_ub_5_6: +1 b_5_6 -1 a_5_6 +10000 z_5_6 <= +10065
 step_lb_transfer_5_7: +1 b_5_7 -1 a_5_7 -40 y_1_5 -60 y_2_5 -10000 z_5_7 >= -10000
 step_ub_transfer_5_7: +1 b_5_7 -1 a_5_7 -40 y_1_5 -60 y_2_5 +10000 z_5_7 <= +10020
 step_lb_5_8: +1 b_5_8 -1 a_5_8 -10000 z_5_8 >= -9958
 step_ub_5_8: +1 b_5_8 -1 a_5_8 +10000 z_5_8 <= +10057
 step_lb_5_9: +1 b_5_9 -1 a_5_9 -10000 z_5_9 >= -9972
 step_ub_5_9: +1 b_5_9 -1 a_5_9 +10000 z_5_9 <= +10040
 step_lb_5_10: +1 b_5_10 -1 a_5_10 -10000 z_5_10 >= -9962
 step_ub_5_10: +1 b_5_10 -1 a_5_10 +10000 z_5_10 <= +10053
 step_lb_transfer_5_11: +1 b_5_11 -1 a_5_11 -40 y_1_5 -60 y_2_5 -10000 z_5_11 >= -10000
 step_ub_transfer_5_11: +1 b_5_11 -1 a_5_11 -40 y_1_5 -60 y_2_5 +10000 z_5_11 <= +10020
 step_lb_5_12: +1 b_5_12 -1 a_5_12 -10000 z_5_12 >= -9975
 step_ub_5_12: +1 b_5_12 -1 a_5_12 +10000 z_5_12 <= +10037
 step_lb_6_0: +1 b_6_0 -1 a_6_0 -10000 z_6_0 >= -9965
 step_ub_6_0: +1 b_6_0 -1 a_6_0 +10000 z_6_0 <= +10050
 step_lb_6_1: +1 b_6_1 -1 a_6_1 -10000 z_6_1 >= -9945
 step_ub_6_1: +1 b_6_1 -1 a_6_1 +10000 z_6_1 <= +10070
 step_lb_transfer_6_2: +1 b_6_2 -1 a_6_2 -40 y_1_6 -60 y_2_6 -10000 z_6_2 >= -10000
 step_ub_transfer_6_2: +1 b_6_2 -1 a_6_2 -40 y_1_6 -60 y_2_6 +10000 z_6_2 <= +10020
 step_lb_6_3: +1 b_6_3 -1 a_6_3 -10000 z_6_3 >= -9955
 step_ub_6_3: +1 b_6_3 -1 a_6_3 +10000 z_6_3 <= +10060
 step_lb_6_4: +1 b_6_4 -1 a_6_4 -10000 z_6_4 >= -9970
 step_ub_6_4: +1 b_6_4 -1 a_6_4 +10000 z_6_4 <= +10042
 step_lb_6_5: +1 b_6_5 -1 a_6_5 -10000 z_6_5 >= -9960
 step_ub_6_5: +1 b_6_5 -1 a_6_5 +10000 z_6_5 <= +10055
 step_lb_6_6: +1 b_6_6 -1 a_6_6 -10000 z_6_6 >= -9950
 step_ub_6_6: +1 b_6_6 -1 a_6_6 +10000 z_6_6 <= +10065
 step_lb_transfer_6_7: +1 b_6_7 -1 a_6_7 -40 y_1_6 -60 y_2_6 -10000 z_6_7 >= -10000
 step_ub_transfer_6_7: +1 b_6_7 -1 a_6_7 -40 y_1_6 -60 y_2_6 +10000 z_6_7 <= +10020
 step_lb_6_8: +1 b_6_8 -1 a_6_8 -10000 z_6_8 >= -9958
 step_ub_6_8: +1 b_6_8 -1 a_6_8 +10000 z_6_8 <= +10057
 step_lb_6_9: +1 b_6_9 -1 a_6_9 -10000 z_6_9 >= -9972
 step_ub_6_9: +1 b_6_9 -1 a_6_9 +10000 z_6_9 <= +10040
 step_lb_6_10: +1 b_6_10 -1 a_6_10 -10000 z_6_10 >= -9962
 step_ub_6_10: +1 b_6_10 -1 a_6_10 +10000 z_6_10 <= +10053
 step_lb_transfer_6_11: +1 b_6_11 -1 a_6_11 -40 y_1_6 -60 y_2_6 -10000 z_6_11 >= -10000
 step_ub_transfer_6_11: +1 b_6_11 -1 a_6_11 -40 y_1_6 -60 y_2_6 +10000 z_6_11 <= +10020
 step_lb_6_12: +1 b_6_12 -1 a_6_12 -10000 z_6_12 >= -9975
 step_ub_6_12: +1 b_6_12 -1 a_6_12 +10000 z_6_12 <= +10037
 step_lb_7_0: +1 b_7_0 -1 a_7_0 -10000 z_7_0 >= -9965
 step_ub_7_0: +1 b_7_0 -1 a_7_0 +10000 z_7_0 <= +10050
 step_lb_7_1: +1 b_7_1 -1 a_7_1 -10000 z_7_1 >= -9945
 step_ub_7_1: +1 b_7_1 -1 a_7_1 +10000 z_7_1 <= +10070
 step_lb_transfer_7_2: +1 b_7_2 -1 a_7_2 -40 y_1_7 -60 y_2_7 -10000 z_7_2 >= -10000
 step_ub_transfer_7_2: +1 b_7_2 -1 a_7_2 -40 y_1_7 -60 y_2_7 +10000 z_7_2 <= +10020
 step_lb_7_3: +1 b_7_3 -1 a_7_3 -10000 z_7_3 >= -9955
 step_ub_7_3: +1 b_7_3 -1 a_7_3 +10000 z_7_3 <= +10060
 step_lb_7_4: +1 b_7_4 -1 a_7_4 -10000 z_7_4 >= -9970
 step_ub_7_4: +1 b_7_4 -1 a_7_4 +10000 z_7_4 <= +10042
 step_lb_7_5: +1 b_7_5 -1 a_7_5 -10000 z_7_5 >= -9960
 step_ub_7_5: +1 b_7_5 -1 a_7_5 +10000 z_7_5 <= +10055
 step_lb_7_6: +1 b_7_6 -1 a_7_6 -10000 z_7_6 >= -9950
 step_ub_7_6: +1 b_7_6 -1 a_7_6 +10000 z_7_6 <= +10065
 step_lb_transfer_7_7: +1 b_7_7 -1 a_7_7 -40 y_1_7 -60 y_2_7 -10000 z_7_7 >= -10000
 step_ub_transfer_7_7: +1 b_7_7 -1 a_7_7 -40 y_1_7 -60 y_2_7 +10000 z_7_7 <= +10020
 step_lb_7_8: +1 b_7_8 -1 a_7_8 -10000 z_7_8 >= -9958
 step_ub_7_8: +1 b_7_8 -1 a_7_8 +10000 z_7_8 <= +10057
 step_lb_7_9: +1 b_7_9 -1 a_7_9 -10000 z_7_9 >= -9972
 step_ub_7_9: +1 b_7_9 -1 a_7_9 +10000 z_7_9 <= +10040
 step_lb_7_10: +1 b_7_10 -1 a_7_10 -10000 z_7_10 >= -9962
 step_ub_7_10: +1 b_7_10 -1 a_7_10 +10000 z_7_10 <= +10053
 step_lb_transfer_7_11: +1 b_7_11 -1 a_7_11 -40 y_1_7 -60 y_2_7 -10000 z_7_11 >= -10000
 step_ub_transfer_7_11: +1 b_7_11 -1 a_7_11 -40 y_1_7 -60 y_2_7 +10000 z_7_11 <= +10020
 step_lb_7_12: +1 b_7_12 -1 a_7_12 -10000 z_7_12 >= -9975
 step_ub_7_12: +1 b_7_12 -1 a_7_12 +10000 z_7_12 <= +10037
 step_lb_8_0: +1 b_8_0 -1 a_8_0 -10000 z_8_0 >= -9965
 step_ub_8_0: +1 b_8_0 -1 a_8_0 +10000 z_8_0 <= +10050
 step_lb_8_1: +1 b_8_1 -1 a_8_1 -10000 z_8_1 >= -9945
 step_ub_8_1: +1 b_8_1 -1 a_8_1 +10000 z_8_1 <= +10070
 step_lb_transfer_8_2: +1 b_8_2 -1 a_8_2 -40 y_1_8 -60 y_2_8 -10000 z_8_2 >= -10000
 step_ub_transfer_8_2: +1 b_8_2 -1 a_8_2 -40 y_1_8 -60 y_2_8 +10000 z_8_2 <= +10020
 step_lb_8_3: +1 b_8_3 -1 a_8_3 -10000 z_8_3 >= -9955
 step_ub_8_3: +1 b_8_3 -1 a_8_3 +10000 z_8_3 <= +10060
 step_lb_8_4: +1 b_8_4 -1 a_8_4 -10000 z_8_4 >= -9970
 step_ub_8_4: +1 b_8_4 -1 a_8_4 +10000 z_8_4 <= +10042
 step_lb_8_5: +1 b_8_5 -1 a_8_5 -10000 z_8_5 >= -9960
 step_ub_8_5: +1 b_8_5 -1 a_8_5 +10000 z_8_5 <= +10055
 step_lb_8_6: +1 b_8_6 -1 a_8_6 -10000 z_8_6 >= -9950
 step_ub_8_6: +1 b_8_6 -1 a_8_6 +10000 z_8_6 <= +10065
 step_lb_transfer_8_7: +1 b_8_7 -1 a_8_7 -40 y_1_8 -60 y_2_8 -10000 z_8_7 >= -10000
 step_ub_transfer_8_7: +1 b_8_7 -1 a_8_7 -40 y_1_8 -60 y_2_8 +10000 z_8_7 <= +10020
 step_lb_8_8: +1 b_8_8 -1 a_8_8 -10000 z_8_8 >= -9958
 step_ub_8_8: +1 b_8_8 -1 a_8_8 +10000 z_8_8 <= +10057
 step_lb_8_9: +1 b_8_9 -1 a_8_9 -10000 z_8_9 >= -9972
 step_ub_8_9: +1 b_8_9 -1 a_8_9 +10000 z_8_9 <= +10040
 step_lb_8_10: +1 b_8_10 -1 a_8_10 -10000 z_8_10 >= -9962
 step_ub_8_10: +1 b_8_10 -1 a_8_10 +10000 z_8_10 <= +10053
 step_lb_transfer_8_11: +1 b_8_11 -1 a_8_11 -40 y_1_8 -60 y_2_8 -10000 z_8_11 >= -10000
 step_ub_transfer_8_11: +1 b_8_11 -1 a_8_11 -40 y_1_8 -60 y_2_8 +10000 z_8_11 <= +10020
 step_lb_8_12: +1 b_8_12 -1 a_8_12 -10000 z_8_12 >= -9975
 step_ub_8_12: +1 b_8_12 -1 a_8_12 +10000 z_8_12 <= +10037
 step_lb_9_0: +1 b_9_0 -1 a_9_0 -10000 z_9_0 >= -9965
 step_ub_9_0: +1 b_9_0 -1 a_9_0 +10000 z_9_0 <= +10050
 step_lb_9_1: +1 b_9_1 -1 a_9_1 -10000 z_9_1 >= -9945
 step_ub_9_1: +1 b_9_1 -1 a_9_1 +10000 z_9_1 <= +10070
 step_lb_transfer_9_2: +1 b_9_2 -1 a_9_2 -40 y_1_9 -60 y_2_9 -10000 z_9_2 >= -10000
 step_ub_transfer_9_2: +1 b_9_2 -1 a_9_2 -40 y_1_9 -60 y_2_9 +10000 z_9_2 <= +10020
 step_lb_9_3: +1 b_9_3 -1 a_9_3 -10000 z_9_3 >= -9955
 step_ub_9_3: +1 b_9_3 -1 a_9_3 +10000 z_9_3 <= +10060
 step_lb_9_4: +1 b_9_4 -1 a_9_4 -10000 z_9_4 >= -9970
 step_ub_9_4: +1 b_9_4 -1 a_9_4 +10000 z_9_4 <= +10042
 step_lb_9_5: +1 b_9_5 -1 a_9_5 -10000 z_9_5 >= -9960
 step_ub_9_5: +1 b_9_5 -1 a_9_5 +10000 z_9_5 <= +10055
 step_lb_9_6: +1 b_9_6 -1 a_9_6 -10000 z_9_6 >= -9950
 step_ub_9_6: +1 b_9_6 -1 a_9_6 +10000 z_9_6 <= +10065
 step_lb_transfer_9_7: +1 b_9_7 -1 a_9_7 -40 y_1_9 -60 y_2_9 -10000 z_9_7 >= -10000
 step_ub_transfer_9_7: +1 b_9_7 -1 a_9_7 -40 y_1_9 -60 y_2_9 +10000 z_9_7 <= +10020
 step_lb_9_8: +1 b_9_8 -1 a_9_8 -10000 z_9_8 >= -9958
 step_ub_9_8: +1 b_9_8 -1 a_9_8 +10000 z_9_8 <= +10057
 step_lb_9_9: +1 b_9_9 -1 a_9_9 -10000 z_9_9 >= -9972
 step_ub_9_9: +1 b_9_9 -1 a_9_9 +10000 z_9_9 <= +10040
 step_lb_9_10: +1 b_9_10 -1 a_9_10 -10000 z_9_10 >= -9962
 step_ub_9_10: +1 b_9_10 -1 a_9_10 +10000 z_9_10 <= +10053
 step_lb_transfer_9_11: +1 b_9_11 -1 a_9_11 -40 y_1_9 -60 y_2_9 -10000 z_9_11 >= -10000
 step_ub_transfer_9_11: +1 b_9_11 -1 a_9_11 -40 y_1_9 -60 y_2_9 +10000 z_9_11 <= +10020
 step_lb_9_12: +1 b_9_12 -1 a_9_12 -10000 z_9_12 >= -9975
 step_ub_9_12: +1 b_9_12 -1 a_9_12 +10000 z_9_12 <= +10037
 step_lb_10_0: +1 b_10_0 -1 a_10_0 -10000 z_10_0 >= -9965
 step_ub_10_0: +1 b_10_0 -1 a_10_0 +10000 z_10_0 <= +10050
 step_lb_10_1: +1 b_10_1 -1 a_10_1 -10000 z_10_1 >= -9945
 step_ub_10_1: +1 b_10_1 -1 a_10_1 +10000 z_10_1 <= +10070
 step_lb_transfer_10_2: +1 b_10_2 -1 a_10_2 -40 y_1_10 -60 y_2_10 -10000 z_10_2 >= -10000
 step_ub_transfer_10_2: +1 b_10_2 -1 a_10_2 -40 y_1_10 -60 y_2_10 +10000 z_10_2 <= +10020
 step_lb_10_3: +1 b_10_3 -1 a_10_3 -10000 z_10_3 >= -9955
 step_ub_10_3: +1 b_10_3 -1 a_10_3 +10000 z_10_3 <= +10060
 step_lb_10_4: +1 b_10_4 -1 a_10_4 -10000 z_10_4 >= -9970
 step_ub_10_4: +1 b_10_4 -1 a_10_4 +10000 z_10_4 <= +10042
 step_lb_10_5: +1 b_10_5 -1 a_10_5 -10000 z_10_5 >= -9960
 step_ub_10_5: +1 b_10_5 -1 a_10_5 +10000 z_10_5 <= +10055
 step_lb_10_6: +1 b_10_6 -1 a_10_6 -10000 z_10_6 >= -9950
 step_ub_10_6: +1 b_10_6 -1 a_10_6 +10000 z_10_6 <= +10065
 step_lb_transfer_10_7: +1 b_10_7 -1 a_10_7 -40 y_1_10 -60 y_2_10 -10000 z_10_7 >= -10000
 step_ub_transfer_10_7: +1 b_10_7 -1 a_10_7 -40 y_1_10 -60 y_2_10 +10000 z_10_7 <= +10020
 step_lb_10_8: +1 b_10_8 -1 a_10_8 -10000 z_10_8 >= -9958
 step_ub_10_8: +1 b_10_8 -1 a_10_8 +10000 z_10_8 <= +10057
 step_lb_10_9: +1 b_10_9 -1 a_10_9 -10000 z_10_9 >= -9972
 step_ub_10_9: +1 b_10_9 -1 a_10_9 +10000 z_10_9 <= +10040
 step_lb_10_10: +1 b_10_10 -1 a_10_10 -10000 z_10_10 >= -9962
 step_ub_10_10: +1 b_10_10 -1 a_10_10 +10000 z_10_10 <= +10053
 step_lb_transfer_10_11: +1 b_10_11 -1 a_10_11 -40 y_1_10 -60 y_2_10 -10000 z_10_11 >= -10000
 step_ub_transfer_10_11: +1 b_10_11 -1 a_10_11 -40 y_1_10 -60 y_2_10 +10000 z_10_11 <= +10020
 step_lb_10_12: +1 b_10_12 -1 a_10_12 -10000 z_10_12 >= -9975
 step_ub_10_12: +1 b_10_12 -1 a_10_12 +10000 z_10_12 <= +10037
 atr_lb_1_0: +1 a_1_1 -1 b_1_0 -10000 z_1_0 -10000 z_1_1 >= -19994
 atr_ub_1_0: +1 a_1_1 -1 b_1_0 +10000 z_1_0 +10000 z_1_1 <= +20036
 atr_lb_1_3: +1 a_1_4 -1 b_1_3 -10000 z_1_3 -10000 z_1_4 >= -19994
 atr_ub_1_3: +1 a_1_4 -1 b_1_3 +10000 z_1_3 +10000 z_1_4 <= +20036
 atr_lb_1_5: +1 a_1_6 -1 b_1_5 -10000 z_1_5 -10000 z_1_6 >= -19994
 atr_ub_1_5: +1 a_1_6 -1 b_1_5 +10000 z_1_5 +10000 z_1_6 <= +20036
 atr_lb_1_8: +1 a_1_9 -1 b_1_8 -10000 z_1_8 -10000 z_1_9 >= -19994
 atr_ub_1_8: +1 a_1_9 -1 b_1_8 +10000 z_1_8 +10000 z_1_9 <= +20036
 vtr_lb_1_1: +1 a_1_2 -1 b_1_1 -10000 z_1_1 -10000 z_1_2 >= -19994
 vtr_ub_1_1: +1 a_1_2 -1 b_1_1 +10000 z_1_1 +10000 z_1_2 <= +20031
 vtr_lb_1_2: +1 a_1_3 -1 b_1_2 -10000 z_1_2 -10000 z_1_3 >= -19994
 vtr_ub_1_2: +1 a_1_3 -1 b_1_2 +10000 z_1_2 +10000 z_1_3 <= +20031
 vtr_lb_1_6: +1 a_1_7 -1 b_1_6 -10000 z_1_6 -10000 z_1_7 >= -19994
 vtr_ub_1_6: +1 a_1_7 -1 b_1_6 +10000 z_1_6 +10000 z_1_7 <= +20031
 vtr_lb_1_7: +1 a_1_8 -1 b_1_7 -10000 z_1_7 -10000 z_1_8 >= -19994
 vtr_ub_1_7: +1 a_1_8 -1 b_1_7 +10000 z_1_7 +10000 z_1_8 <= +20031
 vtr_lb_1_10: +1 a_1_11 -1 b_1_10 -10000 z_1_10 -10000 z_1_11 >= -19994
 vtr_ub_1_10: +1 a_1_11 -1 b_1_10 +10000 z_1_10 +10000 z_1_11 <= +20031
 vtr_lb_1_11: +1 a_1_12 -1 b_1_11 -10000 z_1_11 -10000 z_1_12 >= -19994
 vtr_ub_1_11: +1 a_1_12 -1 b_1_11 +10000 z_1_11 +10000 z_1_12 <= +20031
 atr_lb_2_0: +1 a_2_1 -1 b_2_0 -10000 z_2_0 -10000 z_2_1 >= -19994
 atr_ub_2_0: +1 a_2_1 -1 b_2_0 +10000 z_2_0 +10000 z_2_1 <= +20036
 atr_lb_2_3: +1 a_2_4 -1 b_2_3 -10000 z_2_3 -10000 z_2_4 >= -19994
 atr_ub_2_3: +1 a_2_4 -1 b_2_3 +10000 z_2_3 +10000 z_2_4 <= +20036
 atr_lb_2_5: +1 a_2_6 -1 b_2_5 -10000 z_2_5 -10000 z_2_6 >= -19994
 atr_ub_2_5: +1 a_2_6 -1 b_2_5 +10000 z_2_5 +10000 z_2_6 <= +20036
 atr_lb_2_8: +1 a_2_9 -1 b_2_8 -10000 z_2_8 -10000 z_2_9 >= -19994
 atr_ub_2_8: +1 a_2_9 -1 b_2_8 +10000 z_2_8 +10000 z_2_9 <= +20036
 vtr_lb_2_1: +1 a_2_2 -1 b_2_1 -10000 z_2_1 -10000 z_2_2 >= -19994
 vtr_ub_2_1: +1 a_2_2 -1 b_2_1 +10000 z_2_1 +10000 z_2_2 <= +20031
 vtr_lb_2_2: +1 a_2_3 -1 b_2_2 -10000 z_2_2 -10000 z_2_3 >= -19994
 vtr_ub_2_2: +1 a_2_3 -1 b_2_2 +10000 z_2_2 +10000 z_2_3 <= +20031
 vtr_lb_2_6: +1 a_2_7 -1 b_2_6 -10000 z_2_6 -10000 z_2_7 >= -19994
 vtr_ub_2_6: +1 a_2_7 -1 b_2_6 +10000 z_2_6 +10000 z_2_7 <= +20031
 vtr_lb_2_7: +1 a_2_8 -1 b_2_7 -10000 z_2_7 -10000 z_2_8 >= -19994
 vtr_ub_2_7: +1 a_2_8 -1 b_2_7 +10000 z_2_7 +10000 z_2_8 <= +20031
 vtr_lb_2_10: +1 a_2_11 -1 b_2_10 -10000 z_2_10 -10000 z_2_11 >= -19994
 vtr_ub_2_10: +1 a_2_11 -1 b_2_10 +10000 z_2_10 +10000 z_2_11 <= +20031
 vtr_lb_2_11: +1 a_2_12 -1 b_2_11 -10000 z_2_11 -10000 z_2_12 >= -19994
 vtr_ub_2_11: +1 a_2_12 -1 b_2_11 +10000 z_2_11 +10000 z_2_12 <= +20031
 atr_lb_3_0: +1 a_3_1 -1 b_3_0 -10000 z_3_0 -10000 z_3_1 >= -19994
 atr_ub_3_0: +1 a_3_1 -1 b_3_0 +10000 z_3_0 +10000 z_3_1 <= +20036
 atr_lb_3_3: +1 a_3_4 -1 b_3_3 -10000 z_3_3 -10000 z_3_4 >= -19994
 atr_ub_3_3: +1 a_3_4 -1 b_3_3 +10000 z_3_3 +10000 z_3_4 <= +20036
 atr_lb_3_5: +1 a_3_6 -1 b_3_5 -10000 z_3_5 -10000 z_3_6 >= -19994
 atr_ub_3_5: +1 a_3_6 -1 b_3_5 +10000 z_3_5 +10000 z_3_6 <= +20036
 atr_lb_3_8: +1 a_3_9 -1 b_3_8 -10000 z_3_8 -10000 z_3_9 >= -19994
 atr_ub_3_8: +1 a_3_9 -1 b_3_8 +10000 z_3_8 +10000 z_3_9 <= +20036
 vtr_lb_3_1: +1 a_3_2 -1 b_3_1 -10000 z_3_1 -10000 z_3_2 >= -19994
 vtr_ub_3_1: +1 a_3_2 -1 b_3_1 +10000 z_3_1 +10000 z_3_2 <= +20031
 vtr_lb_3_2: +1 a_3_3 -1 b_3_2 -10000 z_3_2 -10000 z_3_3 >= -19994
 vtr_ub_3_2: +1 a_3_3 -1 b_3_2 +10000 z_3_2 +10000 z_3_3 <= +20031
 vtr_lb_3_6: +1 a_3_7 -1 b_3_6 -10000 z_3_6 -10000 z_3_7 >= -19994
 vtr_ub_3_6: +1 a_3_7 -1 b_3_6 +10000 z_3_6 +10000 z_3_7 <= +20031
 vtr_lb_3_7: +1 a_3_8 -1 b_3_7 -10000 z_3_7 -10000 z_3_8 >= -19994
 vtr_ub_3_7: +1 a_3_8 -1 b_3_7 +10000 z_3_7 +10000 z_3_8 <= +20031
 vtr_lb_3_10: +1 a_3_11 -1 b_3_10 -10000 z_3_10 -10000 z_3_11 >= -19994
 vtr_ub_3_10: +1 a_3_11 -1 b_3_10 +10000 z_3_10 +10000 z_3_11 <= +20031
 vtr_lb_3_11: +1 a_3_12 -1 b_3_11 -10000 z_3_11 -10000 z_3_12 >= -19994
 vtr_ub_3_11: +1 a_3_12 -1 b_3_11 +10000 z_3_11 +10000 z_3_12 <= +20031
 atr_lb_4_0: +1 a_4_1 -1 b_4_0 -10000 z_4_0 -10000 z_4_1 >= -19994
 atr_ub_4_0: +1 a_4_1 -1 b_4_0 +10000 z_4_0 +10000 z_4_1 <= +20036
 atr_lb_4_3: +1 a_4_4 -1 b_4_3 -10000 z_4_3 -10000 z_4_4 >= -19994
 atr_ub_4_3: +1 a_4_4 -1 b_4_3 +10000 z_4_3 +10000 z_4_4 <= +20036
 atr_lb_4_5: +1 a_4_6 -1 b_4_5 -10000 z_4_5 -10000 z_4_6 >= -19994
 atr_ub_4_5: +1 a_4_6 -1 b_4_5 +10000 z_4_5 +10000 z_4_6 <= +20036
 atr_lb_4_8: +1 a_4_9 -1 b_4_8 -10000 z_4_8 -10000 z_4_9 >= -19994
 atr_ub_4_8: +1 a_4_9 -1 b_4_8 +10000 z_4_8 +10000 z_4_9 <= +20036
 vtr_lb_4_1: +1 a_4_2 -1 b_4_1 -10000 z_4_1 -10000 z_4_2 >= -19994
 vtr_ub_4_1: +1 a_4_2 -1 b_4_1 +10000 z_4_1 +10000 z_4_2 <= +20031
 vtr_lb_4_2: +1 a_4_3 -1 b_4_2 -10000 z_4_2 -10000 z_4_3 >= -19994
 vtr_ub_4_2: +1 a_4_3 -1 b_4_2 +10000 z_4_2 +10000 z_4_3 <= +20031
 vtr_lb_4_6: +1 a_4_7 -1 b_4_6 -10000 z_4_6 -10000 z_4_7 >= -19994
 vtr_ub_4_6: +1 a_4_7 -1 b_4_6 +10000 z_4_6 +10000 z_4_7 <= +20031
 vtr_lb_4_7: +1 a_4_8 -1 b_4_7 -10000 z_4_7 -10000 z_4_8 >= -19994
 vtr_ub_4_7: +1 a_4_8 -1 b_4_7 +10000 z_4_7 +10000 z_4_8 <= +20031
 vtr_lb_4_10: +1 a_4_11 -1 b_4_10 -10000 z_4_10 -10000 z_4_11 >= -19994
 vtr_ub_4_10: +1 a_4_11 -1 b_4_10 +10000 z_4_10 +10000 z_4_11 <= +20031
 vtr_lb_4_11: +1 a_4_12 -1 b_4_11 -10000 z_4_11 -10000 z_4_12 >= -19994
 vtr_ub_4_11: +1 a_4_12 -1 b_4_11 +10000 z_4_11 +10000 z_4_12 <= +20031
 atr_lb_5_0: +1 a_5_1 -1 b_5_0 -10000 z_5_0 -10000 z_5_1 >= -19994
 atr_ub_5_0: +1 a_5_1 -1 b_5_0 +10000 z_5_0 +10000 z_5_1 <= +20036
 atr_lb_5_3: +1 a_5_4 -1 b_5_3 -10000 z_5_3 -10000 z_5_4 >= -19994
 atr_ub_5_3: +1 a_5_4 -1 b_5_3 +10000 z_5_3 +10000 z_5_4 <= +20036
 atr_lb_5_5: +1 a_5_6 -1 b_5_5 -10000 z_5_5 -10000 z_5_6 >= -19994
 atr_ub_5_5: +1 a_5_6 -1 b_5_5 +10000 z_5_5 +10000 z_5_6 <= +20036
 atr_lb_5_8: +1 a_5_9 -1 b_5_8 -10000 z_5_8 -10000 z_5_9 >= -19994
 atr_ub_5_8: +1 a_5_9 -1 b_5_8 +10000 z_5_8 +10000 z_5_9 <= +20036
 vtr_lb_5_1: +1 a_5_2 -1 b_5_1 -10000 z_5_1 -10000 z_5_2 >= -19994
 vtr_ub_5_1: +1 a_5_2 -1 b_5_1 +10000 z_5_1 +10000 z_5_2 <= +20031
 vtr_lb_5_2: +1 a_5_3 -1 b_5_2 -10000 z_5_2 -10000 z_5_3 >= -19994
 vtr_ub_5_2: +1 a_5_3 -1 b_5_2 +10000 z_5_2 +10000 z_5_3 <= +20031
 vtr_lb_5_6: +1 a_5_7 -1 b_5_6 -10000 z_5_6 -10000 z_5_7 >= -19994
 vtr_ub_5_6: +1 a_5_7 -1 b_5_6 +10000 z_5_6 +10000 z_5_7 <= +20031
 vtr_lb_5_7: +1 a_5_8 -1 b_5_7 -10000 z_5_7 -10000 z_5_8 >= -19994
 vtr_ub_5_7: +1 a_5_8 -1 b_5_7 +10000 z_5_7 +10000 z_5_8 <= +20031
 vtr_lb_5_10: +1 a_5_11 -1 b_5_10 -10000 z_5_10 -10000 z_5_11 >= -19994
 vtr_ub_5_10: +1 a_5_11 -1 b_5_10 +10000 z_5_10 +10000 z_5_11 <= +20031
 vtr_lb_5_11: +1 a_5_12 -1 b_5_11 -10000 z_5_11 -10000 z_5_12 >= -19994
 vtr_ub_5_11: +1 a_5_12 -1 b_5_11 +10000 z_5_11 +10000 z_5_12 <= +20031
 atr_lb_6_0: +1 a_6_1 -1 b_6_0 -10000 z_6_0 -10000 z_6_1 >= -19994
 atr_ub_6_0: +1 a_6_1 -1 b_6_0 +10000 z_6_0 +10000 z_6_1 <= +20036
 atr_lb_6_3: +1 a_6_4 -1 b_6_3 -10000 z_6_3 -10000 z_6_4 >= -19994
 atr_ub_6_3: +1 a_6_4 -1 b_6_3 +10000 z_6_3 +10000 z_6_4 <= +20036
 atr_lb_6_5: +1 a_6_6 -1 b_6_5 -10000 z_6_5 -10000 z_6_6 >= -19994
 atr_ub_6_5: +1 a_6_6 -1 b_6_5 +10000 z_6_5 +10000 z_6_6 <= +20036
 atr_lb_6_8: +1 a_6_9 -1 b_6_8 -10000 z_6_8 -10000 z_6_9 >= -19994
 atr_ub_6_8: +1 a_6_9 -1 b_6_8 +10000 z_6_8 +10000 z_6_9 <= +20036
 vtr_lb_6_1: +1 a_6_2 -1 b_6_1 -10000 z_6_1 -10000 z_6_2 >= -19994
 vtr_ub_6_1: +1 a_6_2 -1 b_6_1 +10000 z_6_1 +10000 z_6_2 <= +20031
 vtr_lb_6_2: +1 a_6_3 -1 b_6_2 -10000 z_6_2 -10000 z_6_3 >= -19994
 vtr_ub_6_2: +1 a_6_3 -1 b_6_2 +10000 z_6_2 +10000 z_6_3 <= +20031
 vtr_lb_6_6: +1 a_6_7 -1 b_6_6 -10000 z_6_6 -10000 z_6_7 >= -19994
 vtr_ub_6_6: +1 a_6_7 -1 b_6_6 +10000 z_6_6 +10000 z_6_7 <= +20031
 vtr_lb_6_7: +1 a_6_8 -1 b_6_7 -10000 z_6_7 -10000 z_6_8 >= -19994
 vtr_ub_6_7: +1 a_6_8 -1 b_6_7 +10000 z_6_7 +10000 z_6_8 <= +20031
 vtr_lb_6_10: +1 a_6_11 -1 b_6_10 -10000 z_6_10 -10000 z_6_11 >= -19994
 vtr_ub_6_10: +1 a_6_11 -1 b_6_10 +10000 z_6_10 +10000 z_6_11 <= +20031
 vtr_lb_6_11: +1 a_6_12 -1 b_6_11 -10000 z_6_11 -10000 z_6_12 >= -19994
 vtr_ub_6_11: +1 a_6_12 -1 b_6_11 +10000 z_6_11 +10000 z_6_12 <= +20031
 atr_lb_7_0: +1 a_7_1 -1 b_7_0 -10000 z_7_0 -10000 z_7_1 >= -19994
 atr_ub_7_0: +1 a_7_1 -1 b_7_0 +10000 z_7_0 +10000 z_7_1 <= +20036
 atr_lb_7_3: +1 a_7_4 -1 b_7_3 -10000 z_7_3 -10000 z_7_4 >= -19994
 atr_ub_7_3: +1 a_7_4 -1 b_7_3 +10000 z_7_3 +10000 z_7_4 <= +20036
 atr_lb_7_5: +1 a_7_6 -1 b_7_5 -10000 z_7_5 -10000 z_7_6 >= -19994
 atr_ub_7_5: +1 a_7_6 -1 b_7_5 +10000 z_7_5 +10000 z_7_6 <= +20036
 atr_lb_7_8: +1 a_7_9 -1 b_7_8 -10000 z_7_8 -10000 z_7_9 >= -19994
 atr_ub_7_8: +1 a_7_9 -1 b_7_8 +10000 z_7_8 +10000 z_7_9 <= +20036
 vtr_lb_7_1: +1 a_7_2 -1 b_7_1 -10000 z_7_1 -10000 z_7_2 >= -19994
 vtr_ub_7_1: +1 a_7_2 -1 b_7_1 +10000 z_7_1 +10000 z_7_2 <= +20031
 vtr_lb_7_2: +1 a_7_3 -1 b_7_2 -10000 z_7_2 -10000 z_7_3 >= -19994
 vtr_ub_7_2: +1 a_7_3 -1 b_7_2 +10000 z_7_2 +10000 z_7_3 <= +20031
 vtr_lb_7_6: +1 a_7_7 -1 b_7_6 -10000 z_7_6 -10000 z_7_7 >= -19994
 vtr_ub_7_6: +1 a_7_7 -1 b_7_6 +10000 z_7_6 +10000 z_7_7 <= +20031
 vtr_lb_7_7: +1 a_7_8 -1 b_7_7 -10000 z_7_7 -10000 z_7_8 >= -19994
 vtr_ub_7_7: +1 a_7_8 -1 b_7_7 +10000 z_7_7 +10000 z_7_8 <= +20031
 vtr_lb_7_10: +1 a_7_11 -1 b_7_10 -10000 z_7_10 -10000 z_7_11 >= -19994
 vtr_ub_7_10: +1 a_7_11 -1 b_7_10 +10000 z_7_10 +10000 z_7_11 <= +20031
 vtr_lb_7_11: +1 a_7_12 -1 b_7_11 -10000 z_7_11 -10000 z_7_12 >= -19994
 vtr_ub_7_11: +1 a_7_12 -1 b_7_11 +10000 z_7_11 +10000 z_7_12 <= +20031
 atr_lb_8_0: +1 a_8_1 -1 b_8_0 -10000 z_8_0 -10000 z_8_1 >= -19994
 atr_ub_8_0: +1 a_8_1 -1 b_8_0 +10000 z_8_0 +10000 z_8_1 <= +20036
 atr_lb_8_3: +1 a_8_4 -1 b_8_3 -10000 z_8_3 -10000 z_8_4 >= -19994
 atr_ub_8_3: +1 a_8_4 -1 b_8_3 +10000 z_8_3 +10000 z_8_4 <= +20036
 atr_lb_8_5: +1 a_8_6 -1 b_8_5 -10000 z_8_5 -10000 z_8_6 >= -19994
 atr_ub_8_5: +1 a_8_6 -1 b_8_5 +10000 z_8_5 +10000 z_8_6 <= +20036
 atr_lb_8_8: +1 a_8_9 -1 b_8_8 -10000 z_8_8 -10000 z_8_9 >= -19994
 atr_ub_8_8: +1 a_8_9 -1 b_8_8 +10000 z_8_8 +10000 z_8_9 <= +20036
 vtr_lb_8_1: +1 a_8_2 -1 b_8_1 -10000 z_8_1 -10000 z_8_2 >= -19994
 vtr_ub_8_1: +1 a_8_2 -1 b_8_1 +10000 z_8_1 +10000 z_8_2 <= +20031
 vtr_lb_8_2: +1 a_8_3 -1 b_8_2 -10000 z_8_2 -10000 z_8_3 >= -19994
 vtr_ub_8_2: +1 a_8_3 -1 b_8_2 +10000 z_8_2 +10000 z_8_3 <= +20031
 vtr_lb_8_6: +1 a_8_7 -1 b_8_6 -10000 z_8_6 -10000 z_8_7 >= -19994
 vtr_ub_8_6: +1 a_8_7 -1 b_8_6 +10000 z_8_6 +10000 z_8_7 <= +20031
 vtr_lb_8_7: +1 a_8_8 -1 b_8_7 -10000 z_8_7 -10000 z_8_8 >= -19994
 vtr_ub_8_7: +1 a_8_8 -1 b_8_7 +10000 z_8_7 +10000 z_8_8 <= +20031
 vtr_lb_8_10: +1 a_8_11 -1 b_8_10 -10000 z_8_10 -10000 z_8_11 >= -19994
 vtr_ub_8_10: +1 a_8_11 -1 b_8_10 +10000 z_8_10 +10000 z_8_11 <= +20031
 vtr_lb_8_11: +1 a_8_12 -1 b_8_11 -10000 z_8_11 -10000 z_8_12 >= -19994
 vtr_ub_8_11: +1 a_8_12 -1 b_8_11 +10000 z_8_11 +10000 z_8_12 <= +20031
 atr_lb_9_0: +1 a_9_1 -1 b_9_0 -10000 z_9_0 -10000 z_9_1 >= -19994
 atr_ub_9_0: +1 a_9_1 -1 b_9_0 +10000 z_9_0 +10000 z_9_1 <= +20036
 atr_lb_9_3: +1 a_9_4 -1 b_9_3 -10000 z_9_3 -10000 z_9_4 >= -19994
 atr_ub_9_3: +1 a_9_4 -1 b_9_3 +10000 z_9_3 +10000 z_9_4 <= +20036
 atr_lb_9_5: +1 a_9_6 -1 b_9_5 -10000 z_9_5 -10000 z_9_6 >= -19994
 atr_ub_9_5: +1 a_9_6 -1 b_9_5 +10000 z_9_5 +10000 z_9_6 <= +20036
 atr_lb_9_8: +1 a_9_9 -1 b_9_8 -10000 z_9_8 -10000 z_9_9 >= -19994
 atr_ub_9_8: +1 a_9_9 -1 b_9_8 +10000 z_9_8 +10000 z_9_9 <= +20036
 vtr_lb_9_1: +1 a_9_2 -1 b_9_1 -10000 z_9_1 -10000 z_9_2 >= -19994
 vtr_ub_9_1: +1 a_9_2 -1 b_9_1 +10000 z_9_1 +10000 z_9_2 <= +20031
 vtr_lb_9_2: +1 a_9_3 -1 b_9_2 -10000 z_9_2 -10000 z_9_3 >= -19994
 vtr_ub_9_2: +1 a_9_3 -1 b_9_2 +10000 z_9_2 +10000 z_9_3 <= +20031
 vtr_lb_9_6: +1 a_9_7 -1 b_9_6 -10000 z_9_6 -10000 z_9_7 >= -19994
 vtr_ub_9_6: +1 a_9_7 -1 b_9_6 +10000 z_9_6 +10000 z_9_7 <= +20031
 vtr_lb_9_7: +1 a_9_8 -1 b_9_7 -10000 z_9_7 -10000 z_9_8 >= -19994
 vtr_ub_9_7: +1 a_9_8 -1 b_9_7 +10000 z_9_7 +10000 z_9_8 <= +20031
 vtr_lb_9_10: +1 a_9_11 -1 b_9_10 -10000 z_9_10 -10000 z_9_11 >= -19994
 vtr_ub_9_10: +1 a_9_11 -1 b_9_10 +10000 z_9_10 +10000 z_9_11 <= +20031
 vtr_lb_9_11: +1 a_9_12 -1 b_9_11 -10000 z_9_11 -10000 z_9_12 >= -19994
 vtr_ub_9_11: +1 a_9_12 -1 b_9_11 +10000 z_9_11 +10000 z_9_12 <= +20031
 atr_lb_10_0: +1 a_10_1 -1 b_10_0 -10000 z_10_0 -10000 z_10_1 >= -19994
 atr_ub_10_0: +1 a_10_1 -1 b_10_0 +10000 z_10_0 +10000 z_10_1 <= +20036
 atr_lb_10_3: +1 a_10_4 -1 b_10_3 -10000 z_10_3 -10000 z_10_4 >= -19994
 atr_ub_10_3: +1 a_10_4 -1 b_10_3 +10000 z_10_3 +10000 z_10_4 <= +20036
 atr_lb_10_5: +1 a_10_6 -1 b_10_5 -10000 z_10_5 -10000 z_10_6 >= -19994
 atr_ub_10_5: +1 a_10_6 -1 b_10_5 +10000 z_10_5 +10000 z_10_6 <= +20036
 atr_lb_10_8: +1 a_10_9 -1 b_10_8 -10000 z_10_8 -10000 z_10_9 >= -19994
 atr_ub_10_8: +1 a_10_9 -1 b_10_8 +10000 z_10_8 +10000 z_10_9 <= +20036
 vtr_lb_10_1: +1 a_10_2 -1 b_10_1 -10000 z_10_1 -10000 z_10_2 >= -19994
 vtr_ub_10_1: +1 a_10_2 -1 b_10_1 +10000 z_10_1 +10000 z_10_2 <= +20031
 vtr_lb_10_2: +1 a_10_3 -1 b_10_2 -10000 z_10_2 -10000 z_10_3 >= -19994
 vtr_ub_10_2: +1 a_10_3 -1 b_10_2 +10000 z_10_2 +10000 z_10_3 <= +20031
 vtr_lb_10_6: +1 a_10_7 -1 b_10_6 -10000 z_10_6 -10000 z_10_7 >= -19994
 vtr_ub_10_6: +1 a_10_7 -1 b_10_6 +10000 z_10_6 +10000 z_10_7 <= +20031
 vtr_lb_10_7: +1 a_10_8 -1 b_10_7 -10000 z_10_7 -10000 z_10_8 >= -19994
 vtr_ub_10_7: +1 a_10_8 -1 b_10_7 +10000 z_10_7 +10000 z_10_8 <= +20031
 vtr_lb_10_10: +1 a_10_11 -1 b_10_10 -10000 z_10_10 -10000 z_10_11 >= -19994
 vtr_ub_10_10: +1 a_10_11 -1 b_10_10 +10000 z_10_10 +10000 z_10_11 <= +20031
 vtr_lb_10_11: +1 a_10_12 -1 b_10_11 -10000 z_10_11 -10000 z_10_12 >= -19994
 vtr_ub_10_11: +1 a_10_12 -1 b_10_11 +10000 z_10_11 +10000 z_10_12 <= +20031
 same_pw_1_1: +1 a_1_1 -1 b_1_5 +10000 z_1_5 <= +9994
 same_pw_2_1: +1 b_1_10 -1 b_1_1 +10000 pec_2_1 +10000 pec_3_1 <= +9994
 same_pw_3_1: +1 b_1_10 -1 b_1_6 +10000 pec_1_1 <= +9994
 same_pw_4_1: +1 a_1_3 -1 b_1_11 +10000 z_1_10 <= +9994
 same_pw_5_1: +1 b_1_3 -1 a_1_8 +10000 z_1_5 <= +9994
 same_pw_1_2: +1 a_2_1 -1 b_2_5 +10000 z_2_5 <= +9994
 same_pw_2_2: +1 b_2_10 -1 b_2_1 +10000 pec_2_2 +10000 pec_3_2 <= +9994
 same_pw_3_2: +1 b_2_10 -1 b_2_6 +10000 pec_1_2 <= +9994
 same_pw_4_2: +1 a_2_3 -1 b_2_11 +10000 z_2_10 <= +9994
 same_pw_5_2: +1 b_2_3 -1 a_2_8 +10000 z_2_5 <= +9994
 same_pw_1_3: +1 a_3_1 -1 b_3_5 +10000 z_3_5 <= +9994
 same_pw_2_3: +1 b_3_10 -1 b_3_1 +10000 pec_2_3 +10000 pec_3_3 <= +9994
 same_pw_3_3: +1 b_3_10 -1 b_3_6 +10000 pec_1_3 <= +9994
 same_pw_4_3: +1 a_3_3 -1 b_3_11 +10000 z_3_10 <= +9994
 same_pw_5_3: +1 b_3_3 -1 a_3_8 +10000 z_3_5 <= +9994
 same_pw_1_4: +1 a_4_1 -1 b_4_5 +10000 z_4_5 <= +9994
 same_pw_2_4: +1 b_4_10 -1 b_4_1 +10000 pec_2_4 +10000 pec_3_4 <= +9994
 same_pw_3_4: +1 b_4_10 -1 b_4_6 +10000 pec_1_4 <= +9994
 same_pw_4_4: +1 a_4_3 -1 b_4_11 +10000 z_4_10 <= +9994
 same_pw_5_4: +1 b_4_3 -1 a_4_8 +10000 z_4_5 <= +9994
 same_pw_1_5: +1 a_5_1 -1 b_5_5 +10000 z_5_5 <= +9994
 same_pw_2_5: +1 b_5_10 -1 b_5_1 +10000 pec_2_5 +10000 pec_3_5 <= +9994
 same_pw_3_5: +1 b_5_10 -1 b_5_6 +10000 pec_1_5 <= +9994
 same_pw_4_5: +1 a_5_3 -1 b_5_11 +10000 z_5_10 <= +9994
 same_pw_5_5: +1 b_5_3 -1 a_5_8 +10000 z_5_5 <= +9994
 same_pw_1_6: +1 a_6_1 -1 b_6_5 +10000 z_6_5 <= +9994
 same_pw_2_6: +1 b_6_10 -1 b_6_1 +10000 pec_2_6 +10000 pec_3_6 <= +9994
 same_pw_3_6: +1 b_6_10 -1 b_6_6 +10000 pec_1_6 <= +9994
 same_pw_4_6: +1 a_6_3 -1 b_6_11 +10000 z_6_10 <= +9994
 same_pw_5_6: +1 b_6_3 -1 a_6_8 +10000 z_6_5 <= +9994
 same_pw_1_7: +1 a_7_1 -1 b_7_5 +10000 z_7_5 <= +9994
 same_pw_2_7: +1 b_7_10 -1 b_7_1 +10000 pec_2_7 +10000 pec_3_7 <= +9994
 same_pw_3_7: +1 b_7_10 -1 b_7_6 +10000 pec_1_7 <= +9994
 same_pw_4_7: +1 a_7_3 -1 b_7_11 +10000 z_7_10 <= +9994
 same_pw_5_7: +1 b_7_3 -1 a_7_8 +10000 z_7_5 <= +9994
 same_pw_1_8: +1 a_8_1 -1 b_8_5 +10000 z_8_5 <= +9994
 same_pw_2_8: +1 b_8_10 -1 b_8_1 +10000 pec_2_8 +10000 pec_3_8 <= +9994
 same_pw_3_8: +1 b_8_10 -1 b_8_6 +10000 pec_1_8 <= +9994
 same_pw_4_8: +1 a_8_3 -1 b_8_11 +10000 z_8_10 <= +9994
 same_pw_5_8: +1 b_8_3 -1 a_8_8 +10000 z_8_5 <= +9994
 same_pw_1_9: +1 a_9_1 -1 b_9_5 +10000 z_9_5 <= +9994
 same_pw_2_9: +1 b_9_10 -1 b_9_1 +10000 pec_2_9 +10000 pec_3_9 <= +9994
 same_pw_3_9: +1 b_9_10 -1 b_9_6 +10000 pec_1_9 <= +9994
 same_pw_4_9: +1 a_9_3 -1 b_9_11 +10000 z_9_10 <= +9994
 same_pw_5_9: +1 b_9_3 -1 a_9_8 +10000 z_9_5 <= +9994
 same_pw_1_10: +1 a_10_1 -1 b_10_5 +10000 z_10_5 <= +9994
 same_pw_2_10: +1 b_10_10 -1 b_10_1 +10000 pec_2_10 +10000 pec_3_10 <= +9994
 same_pw_3_10: +1 b_10_10 -1 b_10_6 +10000 pec_1_10 <= +9994
 same_pw_4_10: +1 a_10_3 -1 b_10_11 +10000 z_10_10 <= +9994
 same_pw_5_10: +1 b_10_3 -1 a_10_8 +10000 z_10_5 <= +9994
 c_lb_b4_1: +1 c_1 -1 b_1_4 +10000 z_1_9 >= +0
 c_ub_b4_1: +1 c_1 -1 b_1_4 -10000 z_1_9 <= +0
 c_lb_b9_1: +1 c_1 -1 b_1_9 -10000 z_1_9 >= -10000
 c_ub_b9_1: +1 c_1 -1 b_1_9 +10000 z_1_9 <= +10000
 cmax_ge_1: +1 c_max -1 c_1 >= +0
 c_lb_b4_2: +1 c_2 -1 b_2_4 +10000 z_2_9 >= +0
 c_ub_b4_2: +1 c_2 -1 b_2_4 -10000 z_2_9 <= +0
 c_lb_b9_2: +1 c_2 -1 b_2_9 -10000 z_2_9 >= -10000
 c_ub_b9_2: +1 c_2 -1 b_2_9 +10000 z_2_9 <= +10000
 cmax_ge_2: +1 c_max -1 c_2 >= +0
 c_lb_b4_3: +1 c_3 -1 b_3_4 +10000 z_3_9 >= +0
 c_ub_b4_3: +1 c_3 -1 b_3_4 -10000 z_3_9 <= +0
 c_lb_b9_3: +1 c_3 -1 b_3_9 -10000 z_3_9 >= -10000
 c_ub_b9_3: +1 c_3 -1 b_3_9 +10000 z_3_9 <= +10000
 cmax_ge_3: +1 c_max -1 c_3 >= +0
 c_lb_b4_4: +1 c_4 -1 b_4_4 +10000 z_4_9 >= +0
 c_ub_b4_4: +1 c_4 -1 b_4_4 -10000 z_4_9 <= +0
 c_lb_b9_4: +1 c_4 -1 b_4_9 -10000 z_4_9 >= -10000
 c_ub_b9_4: +1 c_4 -1 b_4_9 +10000 z_4_9 <= +10000
 cmax_ge_4: +1 c_max -1 c_4 >= +0
 c_lb_b4_5: +1 c_5 -1 b_5_4 +10000 z_5_9 >= +0
 c_ub_b4_5: +1 c_5 -1 b_5_4 -10000 z_5_9 <= +0
 c_lb_b9_5: +1 c_5 -1 b_5_9 -10000 z_5_9 >= -10000
 c_ub_b9_5: +1 c_5 -1 b_5_9 +10000 z_5_9 <= +10000
 cmax_ge_5: +1 c_max -1 c_5 >= +0
 c_lb_b4_6: +1 c_6 -1 b_6_4 +10000 z_6_9 >= +0
 c_ub_b4_6: +1 c_6 -1 b_6_4 -10000 z_6_9 <= +0
 c_lb_b9_6: +1 c_6 -1 b_6_9 -10000 z_6_9 >= -10000
 c_ub_b9_6: +1 c_6 -1 b_6_9 +10000 z_6_9 <= +10000
 cmax_ge_6: +1 c_max -1 c_6 >= +0
 c_lb_b4_7: +1 c_7 -1 b_7_4 +10000 z_7_9 >= +0
 c_ub_b4_7: +1 c_7 -1 b_7_4 -10000 z_7_9 <= +0
 c_lb_b9_7: +1 c_7 -1 b_7_9 -10000 z_7_9 >= -10000
 c_ub_b9_7: +1 c_7 -1 b_7_9 +10000 z_7_9 <= +10000
 cmax_ge_7: +1 c_max -1 c_7 >= +0
 c_lb_b4_8: +1 c_8 -1 b_8_4 +10000 z_8_9 >= +0
 c_ub_b4_8: +1 c_8 -1 b_8_4 -10000 z_8_9 <= +0
 c_lb_b9_8: +1 c_8 -1 b_8_9 -10000 z_8_9 >= -10000
 c_ub_b9_8: +1 c_8 -1 b_8_9 +10000 z_8_9 <= +10000
 cmax_ge_8: +1 c_max -1 c_8 >= +0
 c_lb_b4_9: +1 c_9 -1 b_9_4 +10000 z_9_9 >= +0
 c_ub_b4_9: +1 c_9 -1 b_9_4 -10000 z_9_9 <= +0
 c_lb_b9_9: +1 c_9 -1 b_9_9 -10000 z_9_9 >= -10000
 c_ub_b9_9: +1 c_9 -1 b_9_9 +10000 z_9_9 <= +10000
 cmax_ge_9: +1 c_max -1 c_9 >= +0
 c_lb_b4_10: +1 c_10 -1 b_10_4 +10000 z_10_9 >= +0
 c_ub_b4_10: +1 c_10 -1 b_10_4 -10000 z_10_9 <= +0
 c_lb_b9_10: +1 c_10 -1 b_10_9 -10000 z_10_9 >= -10000
 c_ub_b9_10: +1 c_10 -1 b_10_9 +10000 z_10_9 <= +10000
 cmax_ge_10: +1 c_max -1 c_10 >= +0
Bounds
 0 <= z_1_0 <= 1
 0 <= z_1_1 <= 1
 0 <= z_1_2 <= 1
 0 <= z_1_3 <= 1
 0 <= z_1_4 <= 1
 0 <= z_1_5 <= 1
 0 <= z_1_6 <= 1
 0 <= z_1_7 <= 1
 0 <= z_1_8 <= 1
 0 <= z_1_9 <= 1
 0 <= z_1_10 <= 1
 0 <= z_1_11 <= 1
 0 <= z_1_12 <= 1
 0 <= z_2_0 <= 1
 0 <= z_2_1 <= 1
 0 <= z_2_2 <= 1
 0 <= z_2_3 <= 1
 0 <= z_2_4 <= 1
 0 <= z_2_5 <= 1
 0 <= z_2_6 <= 1
 0 <= z_2_7 <= 1
 0 <= z_2_8 <= 1
 0 <= z_2_9 <= 1
 0 <= z_2_10 <= 1
 0 <= z_2_11 <= 1
 0 <= z_2_12 <= 1
 0 <= z_3_0 <= 1
 0 <= z_3_1 <= 1
 0 <= z_3_2 <= 1
 0 <= z_3_3 <= 1
 0 <= z_3_4 <= 1
 0 <= z_3_5 <= 1
 0 <= z_3_6 <= 1
 0 <= z_3_7 <= 1
 0 <= z_3_8 <= 1
 0 <= z_3_9 <= 1
 0 <= z_3_10 <= 1
 0 <= z_3_11 <= 1
 0 <= z_3_12 <= 1
 0 <= z_4_0 <= 1
 0 <= z_4_1 <= 1
 0 <= z_4_2 <= 1
 0 <= z_4_3 <= 1
 0 <= z_4_4 <= 1
 0 <= z_4_5 <= 1
 0 <= z_4_6 <= 1
 0 <= z_4_7 <= 1
 0 <= z_4_8 <= 1
 0 <= z_4_9 <= 1
 0 <= z_4_10 <= 1
 0 <= z_4_11 <= 1
 0 <= z_4_12 <= 1
 0 <= z_5_0 <= 1
 0 <= z_5_1 <= 1
 0 <= z_5_2 <= 1
 0 <= z_5_3 <= 1
 0 <= z_5_4 <= 1
 0 <= z_5_5 <= 1
 0 <= z_5_6 <= 1
 0 <= z_5_7 <= 1
 0 <= z_5_8 <= 1
 0 <= z_5_9 <= 1
 0 <= z_5_10 <= 1
 0 <= z_5_11 <= 1
 0 <= z_5_12 <= 1
 0 <= z_6_0 <= 1
 0 <= z_6_1 <= 1
 0 <= z_6_2 <= 1
 0 <= z_6_3 <= 1
 0 <= z_6_4 <= 1
 0 <= z_6_5 <= 1
 0 <= z_6_6 <= 1
 0 <= z_6_7 <= 1
 0 <= z_6_8 <= 1
 0 <= z_6_9 <= 1
 0 <= z_6_10 <= 1
 0 <= z_6_11 <= 1
 0 <= z_6_12 <= 1
 0 <= z_7_0 <= 1
 0 <= z_7_1 <= 1
 0 <= z_7_2 <= 1
 0 <= z_7_3 <= 1
 0 <= z_7_4 <= 1
 0 <= z_7_5 <= 1
 0 <= z_7_6 <= 1
 0 <= z_7_7 <= 1
 0 <= z_7_8 <= 1
 0 <= z_7_9 <= 1
 0 <= z_7_10 <= 1
 0 <= z_7_11 <= 1
 0 <= z_7_12 <= 1
 0 <= z_8_0 <= 1
 0 <= z_8_1 <= 1
 0 <= z_8_2 <= 1
 0 <= z_8_3 <= 1
 0 <= z_8_4 <= 1
 0 <= z_8_5 <= 1
 0 <= z_8_6 <= 1
 0 <= z_8_7 <= 1
 0 <= z_8_8 <= 1
 0 <= z_8_9 <= 1
 0 <= z_8_10 <= 1
 0 <= z_8_11 <= 1
 0 <= z_8_12 <= 1
 0 <= z_9_0 <= 1
 0 <= z_9_1 <= 1
 0 <= z_9_2 <= 1
 0 <= z_9_3 <= 1
 0 <= z_9_4 <= 1
 0 <= z_9_5 <= 1
 0 <= z_9_6 <= 1
 0 <= z_9_7 <= 1
 0 <= z_9_8 <= 1
 0 <= z_9_9 <= 1
 0 <= z_9_10 <= 1
 0 <= z_9_11 <= 1
 0 <= z_9_12 <= 1
 0 <= z_10_0 <= 1
 0 <= z_10_1 <= 1
 0 <= z_10_2 <= 1
 0 <= z_10_3 <= 1
 0 <= z_10_4 <= 1
 0 <= z_10_5 <= 1
 0 <= z_10_6 <= 1
 0 <= z_10_7 <= 1
 0 <= z_10_8 <= 1
 0 <= z_10_9 <= 1
 0 <= z_10_10 <= 1
 0 <= z_10_11 <= 1
 0 <= z_10_12 <= 1
 0 <= x_1_1 <= 1
 0 <= x_1_2 <= 1
 0 <= x_2_1 <= 1
 0 <= x_2_2 <= 1
 0 <= x_3_1 <= 1
 0 <= x_3_2 <= 1
 0 <= x_4_1 <= 1
 0 <= x_4_2 <= 1
 0 <= x_5_1 <= 1
 0 <= x_5_2 <= 1
 0 <= x_6_1 <= 1
 0 <= x_6_2 <= 1
 0 <= x_7_1 <= 1
 0 <= x_7_2 <= 1
 0 <= x_8_1 <= 1
 0 <= x_8_2 <= 1
 0 <= x_9_1 <= 1
 0 <= x_9_2 <= 1
 0 <= x_10_1 <= 1
 0 <= x_10_2 <= 1
 0 <= y_1_1 <= 1
 0 <= y_1_2 <= 1
 0 <= y_1_3 <= 1
 0 <= y_1_4 <= 1
 0 <= y_1_5 <= 1
 0 <= y_1_6 <= 1
 0 <= y_1_7 <= 1
 0 <= y_1_8 <= 1
 0 <= y_1_9 <= 1
 0 <= y_1_10 <= 1
 0 <= y_2_1 <= 1
 0 <= y_2_2 <= 1
 0 <= y_2_3 <= 1
 0 <= y_2_4 <= 1
 0 <= y_2_5 <= 1
 0 <= y_2_6 <= 1
 0 <= y_2_7 <= 1
 0 <= y_2_8 <= 1
 0 <= y_2_9 <= 1
 0 <= y_2_10 <= 1
 0 <= s_1_2 <= 1
 0 <= s_1_3 <= 1
 0 <= s_1_4 <= 1
 0 <= s_1_5 <= 1
 0 <= s_1_6 <= 1
 0 <= s_1_7 <= 1
 0 <= s_1_8 <= 1
 0 <= s_1_9 <= 1
 0 <= s_1_10 <= 1
 0 <= s_2_3 <= 1
 0 <= s_2_4 <= 1
 0 <= s_2_5 <= 1
 0 <= s_2_6 <= 1
 0 <= s_2_7 <= 1
 0 <= s_2_8 <= 1
 0 <= s_2_9 <= 1
 0 <= s_2_10 <= 1
 0 <= s_3_4 <= 1
 0 <= s_3_5 <= 1
 0 <= s_3_6 <= 1
 0 <= s_3_7 <= 1
 0 <= s_3_8 <= 1
 0 <= s_3_9 <= 1
 0 <= s_3_10 <= 1
 0 <= s_4_5 <= 1
 0 <= s_4_6 <= 1
 0 <= s_4_7 <= 1
 0 <= s_4_8 <= 1
 0 <= s_4_9 <= 1
 0 <= s_4_10 <= 1
 0 <= s_5_6 <= 1
 0 <= s_5_7 <= 1
 0 <= s_5_8 <= 1
 0 <= s_5_9 <= 1
 0 <= s_5_10 <= 1
 0 <= s_6_7 <= 1
 0 <= s_6_8 <= 1
 0 <= s_6_9 <= 1
 0 <= s_6_10 <= 1
 0 <= s_7_8 <= 1
 0 <= s_7_9 <= 1
 0 <= s_7_10 <= 1
 0 <= s_8_9 <= 1
 0 <= s_8_10 <= 1
 0 <= s_9_10 <= 1
 0 <= h_1_2 <= 1
 0 <= h_1_3 <= 1
 0 <= h_1_4 <= 1
 0 <= h_1_5 <= 1
 0 <= h_1_6 <= 1
 0 <= h_1_7 <= 1
 0 <= h_1_8 <= 1
 0 <= h_1_9 <= 1
 0 <= h_1_10 <= 1
 0 <= h_2_3 <= 1
 0 <= h_2_4 <= 1
 0 <= h_2_5 <= 1
 0 <= h_2_6 <= 1
 0 <= h_2_7 <= 1
 0 <= h_2_8 <= 1
 0 <= h_2_9 <= 1
 0 <= h_2_10 <= 1
 0 <= h_3_4 <= 1
 0 <= h_3_5 <= 1
 0 <= h_3_6 <= 1
 0 <= h_3_7 <= 1
 0 <= h_3_8 <= 1
 0 <= h_3_9 <= 1
 0 <= h_3_10 <= 1
 0 <= h_4_5 <= 1
 0 <= h_4_6 <= 1
 0 <= h_4_7 <= 1
 0 <= h_4_8 <= 1
 0 <= h_4_9 <= 1
 0 <= h_4_10 <= 1
 0 <= h_5_6 <= 1
 0 <= h_5_7 <= 1
 0 <= h_5_8 <= 1
 0 <= h_5_9 <= 1
 0 <= h_5_10 <= 1
 0 <= h_6_7 <= 1
 0 <= h_6_8 <= 1
 0 <= h_6_9 <= 1
 0 <= h_6_10 <= 1
 0 <= h_7_8 <= 1
 0 <= h_7_9 <= 1
 0 <= h_7_10 <= 1
 0 <= h_8_9 <= 1
 0 <= h_8_10 <= 1
 0 <= h_9_10 <= 1
 0 <= pec_0_1 <= 1
 0 <= pec_0_2 <= 1
 0 <= pec_0_3 <= 1
 0 <= pec_0_4 <= 1
 0 <= pec_0_5 <= 1
 0 <= pec_0_6 <= 1
 0 <= pec_0_7 <= 1
 0 <= pec_0_8 <= 1
 0 <= pec_0_9 <= 1
 0 <= pec_0_10 <= 1
 0 <= pec_1_1 <= 1
 0 <= pec_1_2 <= 1
 0 <= pec_1_3 <= 1
 0 <= pec_1_4 <= 1
 0 <= pec_1_5 <= 1
 0 <= pec_1_6 <= 1
 0 <= pec_1_7 <= 1
 0 <= pec_1_8 <= 1
 0 <= pec_1_9 <= 1
 0 <= pec_1_10 <= 1
 0 <= pec_2_1 <= 1
 0 <= pec_2_2 <= 1
 0 <= pec_2_3 <= 1
 0 <= pec_2_4 <= 1
 0 <= pec_2_5 <= 1
 0 <= pec_2_6 <= 1
 0 <= pec_2_7 <= 1
 0 <= pec_2_8 <= 1
 0 <= pec_2_9 <= 1
 0 <= pec_2_10 <= 1
 0 <= pec_3_1 <= 1
 0 <= pec_3_2 <= 1
 0 <= pec_3_3 <= 1
 0 <= pec_3_4 <= 1
 0 <= pec_3_5 <= 1
 0 <= pec_3_6 <= 1
 0 <= pec_3_7 <= 1
 0 <= pec_3_8 <= 1
 0 <= pec_3_9 <= 1
 0 <= pec_3_10 <= 1
 0 <= pec_4_1 <= 1
 0 <= pec_4_2 <= 1
 0 <= pec_4_3 <= 1
 0 <= pec_4_4 <= 1
 0 <= pec_4_5 <= 1
 0 <= pec_4_6 <= 1
 0 <= pec_4_7 <= 1
 0 <= pec_4_8 <= 1
 0 <= pec_4_9 <= 1
 0 <= pec_4_10 <= 1
 0 <= w_1_1 <= 1
 0 <= w_1_2 <= 1
 0 <= w_1_3 <= 1
 0 <= w_1_4 <= 1
 0 <= w_1_5 <= 1
 0 <= w_1_6 <= 1
 0 <= w_1_7 <= 1
 0 <= w_1_8 <= 1
 0 <= w_1_9 <= 1
 0 <= w_1_10 <= 1
 0 <= w_2_1 <= 1
 0 <= w_2_2 <= 1
 0 <= w_2_3 <= 1
 0 <= w_2_4 <= 1
 0 <= w_2_5 <= 1
 0 <= w_2_6 <= 1
 0 <= w_2_7 <= 1
 0 <= w_2_8 <= 1
 0 <= w_2_9 <= 1
 0 <= w_2_10 <= 1
 0 <= w_3_1 <= 1
 0 <= w_3_2 <= 1
 0 <= w_3_3 <= 1
 0 <= w_3_4 <= 1
 0 <= w_3_5 <= 1
 0 <= w_3_6 <= 1
 0 <= w_3_7 <= 1
 0 <= w_3_8 <= 1
 0 <= w_3_9 <= 1
 0 <= w_3_10 <= 1
 0 <= w_4_1 <= 1
 0 <= w_4_2 <= 1
 0 <= w_4_3 <= 1
 0 <= w_4_4 <= 1
 0 <= w_4_5 <= 1
 0 <= w_4_6 <= 1
 0 <= w_4_7 <= 1
 0 <= w_4_8 <= 1
 0 <= w_4_9 <= 1
 0 <= w_4_10 <= 1
 0 <= w_5_1 <= 1
 0 <= w_5_2 <= 1
 0 <= w_5_3 <= 1
 0 <= w_5_4 <= 1
 0 <= w_5_5 <= 1
 0 <= w_5_6 <= 1
 0 <= w_5_7 <= 1
 0 <= w_5_8 <= 1
 0 <= w_5_9 <= 1
 0 <= w_5_10 <= 1
 0 <= w_6_1 <= 1
 0 <= w_6_2 <= 1
 0 <= w_6_3 <= 1
 0 <= w_6_4 <= 1
 0 <= w_6_5 <= 1
 0 <= w_6_6 <= 1
 0 <= w_6_7 <= 1
 0 <= w_6_8 <= 1
 0 <= w_6_9 <= 1
 0 <= w_6_10 <= 1
 0 <= w_7_1 <= 1
 0 <= w_7_2 <= 1
 0 <= w_7_3 <= 1
 0 <= w_7_4 <= 1
 0 <= w_7_5 <= 1
 0 <= w_7_6 <= 1
 0 <= w_7_7 <= 1
 0 <= w_7_8 <= 1
 0 <= w_7_9 <= 1
 0 <= w_7_10 <= 1
 0 <= w_8_1 <= 1
 0 <= w_8_2 <= 1
 0 <= w_8_3 <= 1
 0 <= w_8_4 <= 1
 0 <= w_8_5 <= 1
 0 <= w_8_6 <= 1
 0 <= w_8_7 <= 1
 0 <= w_8_8 <= 1
 0 <= w_8_9 <= 1
 0 <= w_8_10 <= 1
 0 <= w_9_1 <= 1
 0 <= w_9_2 <= 1
 0 <= w_9_3 <= 1
 0 <= w_9_4 <= 1
 0 <= w_9_5 <= 1
 0 <= w_9_6 <= 1
 0 <= w_9_7 <= 1
 0 <= w_9_8 <= 1
 0 <= w_9_9 <= 1
 0 <= w_9_10 <= 1
 0 <= w_10_1 <= 1
 0 <= w_10_2 <= 1
 0 <= w_10_3 <= 1
 0 <= w_10_4 <= 1
 0 <= w_10_5 <= 1
 0 <= w_10_6 <= 1
 0 <= w_10_7 <= 1
 0 <= w_10_8 <= 1
 0 <= w_10_9 <= 1
 0 <= w_10_10 <= 1
 0 <= w_11_1 <= 1
 0 <= w_11_2 <= 1
 0 <= w_11_3 <= 1
 0 <= w_11_4 <= 1
 0 <= w_11_5 <= 1
 0 <= w_11_6 <= 1
 0 <= w_11_7 <= 1
 0 <= w_11_8 <= 1
 0 <= w_11_9 <= 1
 0 <= w_11_10 <= 1
 0 <= w_12_1 <= 1
 0 <= w_12_2 <= 1
 0 <= w_12_3 <= 1
 0 <= w_12_4 <= 1
 0 <= w_12_5 <= 1
 0 <= w_12_6 <= 1
 0 <= w_12_7 <= 1
 0 <= w_12_8 <= 1
 0 <= w_12_9 <= 1
 0 <= w_12_10 <= 1
 0 <= w_13_1 <= 1
 0 <= w_13_2 <= 1
 0 <= w_13_3 <= 1
 0 <= w_13_4 <= 1
 0 <= w_13_5 <= 1
 0 <= w_13_6 <= 1
 0 <= w_13_7 <= 1
 0 <= w_13_8 <= 1
 0 <= w_13_9 <= 1
 0 <= w_13_10 <= 1
 0 <= w_14_1 <= 1
 0 <= w_14_2 <= 1
 0 <= w_14_3 <= 1
 0 <= w_14_4 <= 1
 0 <= w_14_5 <= 1
 0 <= w_14_6 <= 1
 0 <= w_14_7 <= 1
 0 <= w_14_8 <= 1
 0 <= w_14_9 <= 1
 0 <= w_14_10 <= 1
 0 <= w_15_1 <= 1
 0 <= w_15_2 <= 1
 0 <= w_15_3 <= 1
 0 <= w_15_4 <= 1
 0 <= w_15_5 <= 1
 0 <= w_15_6 <= 1
 0 <= w_15_7 <= 1
 0 <= w_15_8 <= 1
 0 <= w_15_9 <= 1
 0 <= w_15_10 <= 1
 0 <= w_16_1 <= 1
 0 <= w_16_2 <= 1
 0 <= w_16_3 <= 1
 0 <= w_16_4 <= 1
 0 <= w_16_5 <= 1
 0 <= w_16_6 <= 1
 0 <= w_16_7 <= 1
 0 <= w_16_8 <= 1
 0 <= w_16_9 <= 1
 0 <= w_16_10 <= 1
 0 <= w_17_1 <= 1
 0 <= w_17_2 <= 1
 0 <= w_17_3 <= 1
 0 <= w_17_4 <= 1
 0 <= w_17_5 <= 1
 0 <= w_17_6 <= 1
 0 <= w_17_7 <= 1
 0 <= w_17_8 <= 1
 0 <= w_17_9 <= 1
 0 <= w_17_10 <= 1
 0 <= w_18_1 <= 1
 0 <= w_18_2 <= 1
 0 <= w_18_3 <= 1
 0 <= w_18_4 <= 1
 0 <= w_18_5 <= 1
 0 <= w_18_6 <= 1
 0 <= w_18_7 <= 1
 0 <= w_18_8 <= 1
 0 <= w_18_9 <= 1
 0 <= w_18_10 <= 1
 0 <= w_19_1 <= 1
 0 <= w_19_2 <= 1
 0 <= w_19_3 <= 1
 0 <= w_19_4 <= 1
 0 <= w_19_5 <= 1
 0 <= w_19_6 <= 1
 0 <= w_19_7 <= 1
 0 <= w_19_8 <= 1
 0 <= w_19_9 <= 1
 0 <= w_19_10 <= 1
 0 <= w_20_1 <= 1
 0 <= w_20_2 <= 1
 0 <= w_20_3 <= 1
 0 <= w_20_4 <= 1
 0 <= w_20_5 <= 1
 0 <= w_20_6 <= 1
 0 <= w_20_7 <= 1
 0 <= w_20_8 <= 1
 0 <= w_20_9 <= 1
 0 <= w_20_10 <= 1
 0 <= w_21_1 <= 1
 0 <= w_21_2 <= 1
 0 <= w_21_3 <= 1
 0 <= w_21_4 <= 1
 0 <= w_21_5 <= 1
 0 <= w_21_6 <= 1
 0 <= w_21_7 <= 1
 0 <= w_21_8 <= 1
 0 <= w_21_9 <= 1
 0 <= w_21_10 <= 1
 0 <= w_22_1 <= 1
 0 <= w_22_2 <= 1
 0 <= w_22_3 <= 1
 0 <= w_22_4 <= 1
 0 <= w_22_5 <= 1
 0 <= w_22_6 <= 1
 0 <= w_22_7 <= 1
 0 <= w_22_8 <= 1
 0 <= w_22_9 <= 1
 0 <= w_22_10 <= 1
 0 <= w_23_1 <= 1
 0 <= w_23_2 <= 1
 0 <= w_23_3 <= 1
 0 <= w_23_4 <= 1
 0 <= w_23_5 <= 1
 0 <= w_23_6 <= 1
 0 <= w_23_7 <= 1
 0 <= w_23_8 <= 1
 0 <= w_23_9 <= 1
 0 <= w_23_10 <= 1
 0 <= w_24_1 <= 1
 0 <= w_24_2 <= 1
 0 <= w_24_3 <= 1
 0 <= w_24_4 <= 1
 0 <= w_24_5 <= 1
 0 <= w_24_6 <= 1
 0 <= w_24_7 <= 1
 0 <= w_24_8 <= 1
 0 <= w_24_9 <= 1
 0 <= w_24_10 <= 1
 0 <= w_25_1 <= 1
 0 <= w_25_2 <= 1
 0 <= w_25_3 <= 1
 0 <= w_25_4 <= 1
 0 <= w_25_5 <= 1
 0 <= w_25_6 <= 1
 0 <= w_25_7 <= 1
 0 <= w_25_8 <= 1
 0 <= w_25_9 <= 1
 0 <= w_25_10 <= 1
 0 <= w_26_1 <= 1
 0 <= w_26_2 <= 1
 0 <= w_26_3 <= 1
 0 <= w_26_4 <= 1
 0 <= w_26_5 <= 1
 0 <= w_26_6 <= 1
 0 <= w_26_7 <= 1
 0 <= w_26_8 <= 1
 0 <= w_26_9 <= 1
 0 <= w_26_10 <= 1
 0 <= w_27_1 <= 1
 0 <= w_27_2 <= 1
 0 <= w_27_3 <= 1
 0 <= w_27_4 <= 1
 0 <= w_27_5 <= 1
 0 <= w_27_6 <= 1
 0 <= w_27_7 <= 1
 0 <= w_27_8 <= 1
 0 <= w_27_9 <= 1
 0 <= w_27_10 <= 1
 0 <= w_28_1 <= 1
 0 <= w_28_2 <= 1
 0 <= w_28_3 <= 1
 0 <= w_28_4 <= 1
 0 <= w_28_5 <= 1
 0 <= w_28_6 <= 1
 0 <= w_28_7 <= 1
 0 <= w_28_8 <= 1
 0 <= w_28_9 <= 1
 0 <= w_28_10 <= 1
 0 <= w_29_1 <= 1
 0 <= w_29_2 <= 1
 0 <= w_29_3 <= 1
 0 <= w_29_4 <= 1
 0 <= w_29_5 <= 1
 0 <= w_29_6 <= 1
 0 <= w_29_7 <= 1
 0 <= w_29_8 <= 1
 0 <= w_29_9 <= 1
 0 <= w_29_10 <= 1
 0 <= w_30_1 <= 1
 0 <= w_30_2 <= 1
 0 <= w_30_3 <= 1
 0 <= w_30_4 <= 1
 0 <= w_30_5 <= 1
 0 <= w_30_6 <= 1
 0 <= w_30_7 <= 1
 0 <= w_30_8 <= 1
 0 <= w_30_9 <= 1
 0 <= w_30_10 <= 1
 0 <= w_31_1 <= 1
 0 <= w_31_2 <= 1
 0 <= w_31_3 <= 1
 0 <= w_31_4 <= 1
 0 <= w_31_5 <= 1
 0 <= w_31_6 <= 1
 0 <= w_31_7 <= 1
 0 <= w_31_8 <= 1
 0 <= w_31_9 <= 1
 0 <= w_31_10 <= 1
 0 <= w_32_1 <= 1
 0 <= w_32_2 <= 1
 0 <= w_32_3 <= 1
 0 <= w_32_4 <= 1
 0 <= w_32_5 <= 1
 0 <= w_32_6 <= 1
 0 <= w_32_7 <= 1
 0 <= w_32_8 <= 1
 0 <= w_32_9 <= 1
 0 <= w_32_10 <= 1
 0 <= w_33_1 <= 1
 0 <= w_33_2 <= 1
 0 <= w_33_3 <= 1
 0 <= w_33_4 <= 1
 0 <= w_33_5 <= 1
 0 <= w_33_6 <= 1
 0 <= w_33_7 <= 1
 0 <= w_33_8 <= 1
 0 <= w_33_9 <= 1
 0 <= w_33_10 <= 1
 0 <= w_34_1 <= 1
 0 <= w_34_2 <= 1
 0 <= w_34_3 <= 1
 0 <= w_34_4 <= 1
 0 <= w_34_5 <= 1
 0 <= w_34_6 <= 1
 0 <= w_34_7 <= 1
 0 <= w_34_8 <= 1
 0 <= w_34_9 <= 1
 0 <= w_34_10 <= 1
 0 <= w_35_1 <= 1
 0 <= w_35_2 <= 1
 0 <= w_35_3 <= 1
 0 <= w_35_4 <= 1
 0 <= w_35_5 <= 1
 0 <= w_35_6 <= 1
 0 <= w_35_7 <= 1
 0 <= w_35_8 <= 1
 0 <= w_35_9 <= 1
 0 <= w_35_10 <= 1
 0 <= w_36_1 <= 1
 0 <= w_36_2 <= 1
 0 <= w_36_3 <= 1
 0 <= w_36_4 <= 1
 0 <= w_36_5 <= 1
 0 <= w_36_6 <= 1
 0 <= w_36_7 <= 1
 0 <= w_36_8 <= 1
 0 <= w_36_9 <= 1
 0 <= w_36_10 <= 1
 0 <= w_37_1 <= 1
 0 <= w_37_2 <= 1
 0 <= w_37_3 <= 1
 0 <= w_37_4 <= 1
 0 <= w_37_5 <= 1
 0 <= w_37_6 <= 1
 0 <= w_37_7 <= 1
 0 <= w_37_8 <= 1
 0 <= w_37_9 <= 1
 0 <= w_37_10 <= 1
 0 <= w_38_1 <= 1
 0 <= w_38_2 <= 1
 0 <= w_38_3 <= 1
 0 <= w_38_4 <= 1
 0 <= w_38_5 <= 1
 0 <= w_38_6 <= 1
 0 <= w_38_7 <= 1
 0 <= w_38_8 <= 1
 0 <= w_38_9 <= 1
 0 <= w_38_10 <= 1
 0 <= w_39_1 <= 1
 0 <= w_39_2 <= 1
 0 <= w_39_3 <= 1
 0 <= w_39_4 <= 1
 0 <= w_39_5 <= 1
 0 <= w_39_6 <= 1
 0 <= w_39_7 <= 1
 0 <= w_39_8 <= 1
 0 <= w_39_9 <= 1
 0 <= w_39_10 <= 1
 0 <= w_40_1 <= 1
 0 <= w_40_2 <= 1
 0 <= w_40_3 <= 1
 0 <= w_40_4 <= 1
 0 <= w_40_5 <= 1
 0 <= w_40_6 <= 1
 0 <= w_40_7 <= 1
 0 <= w_40_8 <= 1
 0 <= w_40_9 <= 1
 0 <= w_40_10 <= 1
 0 <= mode_1_1 <= 1
 0 <= mode_1_2 <= 1
 0 <= mode_1_3 <= 1
 0 <= mode_1_4 <= 1
 0 <= mode_1_5 <= 1
 0 <= mode_1_6 <= 1
 0 <= mode_1_7 <= 1
 0 <= mode_1_8 <= 1
 0 <= mode_1_9 <= 1
 0 <= mode_1_10 <= 1
 0 <= mode_1_11 <= 1
 0 <= mode_1_12 <= 1
 0 <= mode_1_13 <= 1
 0 <= mode_1_14 <= 1
 0 <= mode_1_15 <= 1
 0 <= mode_1_16 <= 1
 0 <= mode_1_17 <= 1
 0 <= mode_1_18 <= 1
 0 <= mode_1_19 <= 1
 0 <= mode_1_20 <= 1
 0 <= mode_1_21 <= 1
 0 <= mode_1_22 <= 1
 0 <= mode_1_23 <= 1
 0 <= mode_1_24 <= 1
 0 <= mode_1_25 <= 1
 0 <= mode_1_26 <= 1
 0 <= mode_1_27 <= 1
 0 <= mode_1_28 <= 1
 0 <= mode_1_29 <= 1
 0 <= mode_1_30 <= 1
 0 <= mode_1_31 <= 1
 0 <= mode_1_32 <= 1
 0 <= mode_1_33 <= 1
 0 <= mode_1_34 <= 1
 0 <= mode_1_35 <= 1
 0 <= mode_1_36 <= 1
 0 <= mode_1_37 <= 1
 0 <= mode_1_38 <= 1
 0 <= mode_1_39 <= 1
 0 <= mode_1_40 <= 1
 0 <= mode_2_1 <= 1
 0 <= mode_2_2 <= 1
 0 <= mode_2_3 <= 1
 0 <= mode_2_4 <= 1
 0 <= mode_2_5 <= 1
 0 <= mode_2_6 <= 1
 0 <= mode_2_7 <= 1
 0 <= mode_2_8 <= 1
 0 <= mode_2_9 <= 1
 0 <= mode_2_10 <= 1
 0 <= mode_2_11 <= 1
 0 <= mode_2_12 <= 1
 0 <= mode_2_13 <= 1
 0 <= mode_2_14 <= 1
 0 <= mode_2_15 <= 1
 0 <= mode_2_16 <= 1
 0 <= mode_2_17 <= 1
 0 <= mode_2_18 <= 1
 0 <= mode_2_19 <= 1
 0 <= mode_2_20 <= 1
 0 <= mode_2_21 <= 1
 0 <= mode_2_22 <= 1
 0 <= mode_2_23 <= 1
 0 <= mode_2_24 <= 1
 0 <= mode_2_25 <= 1
 0 <= mode_2_26 <= 1
 0 <= mode_2_27 <= 1
 0 <= mode_2_28 <= 1
 0 <= mode_2_29 <= 1
 0 <= mode_2_30 <= 1
 0 <= mode_2_31 <= 1
 0 <= mode_2_32 <= 1
 0 <= mode_2_33 <= 1
 0 <= mode_2_34 <= 1
 0 <= mode_2_35 <= 1
 0 <= mode_2_36 <= 1
 0 <= mode_2_37 <= 1
 0 <= mode_2_38 <= 1
 0 <= mode_2_39 <= 1
 0 <= mode_2_40 <= 1
 0 <= u_1_1_1 <= 1
 0 <= u_1_1_2 <= 1
 0 <= u_1_1_3 <= 1
 0 <= u_1_1_4 <= 1
 0 <= u_1_1_5 <= 1
 0 <= u_1_1_6 <= 1
 0 <= u_1_1_7 <= 1
 0 <= u_1_1_8 <= 1
 0 <= u_1_1_9 <= 1
 0 <= u_1_1_10 <= 1
 0 <= u_1_2_1 <= 1
 0 <= u_1_2_2 <= 1
 0 <= u_1_2_3 <= 1
 0 <= u_1_2_4 <= 1
 0 <= u_1_2_5 <= 1
 0 <= u_1_2_6 <= 1
 0 <= u_1_2_7 <= 1
 0 <= u_1_2_8 <= 1
 0 <= u_1_2_9 <= 1
 0 <= u_1_2_10 <= 1
 0 <= u_1_3_1 <= 1
 0 <= u_1_3_2 <= 1
 0 <= u_1_3_3 <= 1
 0 <= u_1_3_4 <= 1
 0 <= u_1_3_5 <= 1
 0 <= u_1_3_6 <= 1
 0 <= u_1_3_7 <= 1
 0 <= u_1_3_8 <= 1
 0 <= u_1_3_9 <= 1
 0 <= u_1_3_10 <= 1
 0 <= u_1_4_1 <= 1
 0 <= u_1_4_2 <= 1
 0 <= u_1_4_3 <= 1
 0 <= u_1_4_4 <= 1
 0 <= u_1_4_5 <= 1
 0 <= u_1_4_6 <= 1
 0 <= u_1_4_7 <= 1
 0 <= u_1_4_8 <= 1
 0 <= u_1_4_9 <= 1
 0 <= u_1_4_10 <= 1
 0 <= u_1_5_1 <= 1
 0 <= u_1_5_2 <= 1
 0 <= u_1_5_3 <= 1
 0 <= u_1_5_4 <= 1
 0 <= u_1_5_5 <= 1
 0 <= u_1_5_6 <= 1
 0 <= u_1_5_7 <= 1
 0 <= u_1_5_8 <= 1
 0 <= u_1_5_9 <= 1
 0 <= u_1_5_10 <= 1
 0 <= u_1_6_1 <= 1
 0 <= u_1_6_2 <= 1
 0 <= u_1_6_3 <= 1
 0 <= u_1_6_4 <= 1
 0 <= u_1_6_5 <= 1
 0 <= u_1_6_6 <= 1
 0 <= u_1_6_7 <= 1
 0 <= u_1_6_8 <= 1
 0 <= u_1_6_9 <= 1
 0 <= u_1_6_10 <= 1
 0 <= u_1_7_1 <= 1
 0 <= u_1_7_2 <= 1
 0 <= u_1_7_3 <= 1
 0 <= u_1_7_4 <= 1
 0 <= u_1_7_5 <= 1
 0 <= u_1_7_6 <= 1
 0 <= u_1_7_7 <= 1
 0 <= u_1_7_8 <= 1
 0 <= u_1_7_9 <= 1
 0 <= u_1_7_10 <= 1
 0 <= u_1_8_1 <= 1
 0 <= u_1_8_2 <= 1
 0 <= u_1_8_3 <= 1
 0 <= u_1_8_4 <= 1
 0 <= u_1_8_5 <= 1
 0 <= u_1_8_6 <= 1
 0 <= u_1_8_7 <= 1
 0 <= u_1_8_8 <= 1
 0 <= u_1_8_9 <= 1
 0 <= u_1_8_10 <= 1
 0 <= u_1_9_1 <= 1
 0 <= u_1_9_2 <= 1
 0 <= u_1_9_3 <= 1
 0 <= u_1_9_4 <= 1
 0 <= u_1_9_5 <= 1
 0 <= u_1_9_6 <= 1
 0 <= u_1_9_7 <= 1
 0 <= u_1_9_8 <= 1
 0 <= u_1_9_9 <= 1
 0 <= u_1_9_10 <= 1
 0 <= u_1_10_1 <= 1
 0 <= u_1_10_2 <= 1
 0 <= u_1_10_3 <= 1
 0 <= u_1_10_4 <= 1
 0 <= u_1_10_5 <= 1
 0 <= u_1_10_6 <= 1
 0 <= u_1_10_7 <= 1
 0 <= u_1_10_8 <= 1
 0 <= u_1_10_9 <= 1
 0 <= u_1_10_10 <= 1
 0 <= u_1_11_1 <= 1
 0 <= u_1_11_2 <= 1
 0 <= u_1_11_3 <= 1
 0 <= u_1_11_4 <= 1
 0 <= u_1_11_5 <= 1
 0 <= u_1_11_6 <= 1
 0 <= u_1_11_7 <= 1
 0 <= u_1_11_8 <= 1
 0 <= u_1_11_9 <= 1
 0 <= u_1_11_10 <= 1
 0 <= u_1_12_1 <= 1
 0 <= u_1_12_2 <= 1
 0 <= u_1_12_3 <= 1
 0 <= u_1_12_4 <= 1
 0 <= u_1_12_5 <= 1
 0 <= u_1_12_6 <= 1
 0 <= u_1_12_7 <= 1
 0 <= u_1_12_8 <= 1
 0 <= u_1_12_9 <= 1
 0 <= u_1_12_10 <= 1
 0 <= u_1_13_1 <= 1
 0 <= u_1_13_2 <= 1
 0 <= u_1_13_3 <= 1
 0 <= u_1_13_4 <= 1
 0 <= u_1_13_5 <= 1
 0 <= u_1_13_6 <= 1
 0 <= u_1_13_7 <= 1
 0 <= u_1_13_8 <= 1
 0 <= u_1_13_9 <= 1
 0 <= u_1_13_10 <= 1
 0 <= u_1_14_1 <= 1
 0 <= u_1_14_2 <= 1
 0 <= u_1_14_3 <= 1
 0 <= u_1_14_4 <= 1
 0 <= u_1_14_5 <= 1
 0 <= u_1_14_6 <= 1
 0 <= u_1_14_7 <= 1
 0 <= u_1_14_8 <= 1
 0 <= u_1_14_9 <= 1
 0 <= u_1_14_10 <= 1
 0 <= u_1_15_1 <= 1
 0 <= u_1_15_2 <= 1
 0 <= u_1_15_3 <= 1
 0 <= u_1_15_4 <= 1
 0 <= u_1_15_5 <= 1
 0 <= u_1_15_6 <= 1
 0 <= u_1_15_7 <= 1
 0 <= u_1_15_8 <= 1
 0 <= u_1_15_9 <= 1
 0 <= u_1_15_10 <= 1
 0 <= u_1_16_1 <= 1
 0 <= u_1_16_2 <= 1
 0 <= u_1_16_3 <= 1
 0 <= u_1_16_4 <= 1
 0 <= u_1_16_5 <= 1
 0 <= u_1_16_6 <= 1
 0 <= u_1_16_7 <= 1
 0 <= u_1_16_8 <= 1
 0 <= u_1_16_9 <= 1
 0 <= u_1_16_10 <= 1
 0 <= u_1_17_1 <= 1
 0 <= u_1_17_2 <= 1
 0 <= u_1_17_3 <= 1
 0 <= u_1_17_4 <= 1
 0 <= u_1_17_5 <= 1
 0 <= u_1_17_6 <= 1
 0 <= u_1_17_7 <= 1
 0 <= u_1_17_8 <= 1
 0 <= u_1_17_9 <= 1
 0 <= u_1_17_10 <= 1
 0 <= u_1_18_1 <= 1
 0 <= u_1_18_2 <= 1
 0 <= u_1_18_3 <= 1
 0 <= u_1_18_4 <= 1
 0 <= u_1_18_5 <= 1
 0 <= u_1_18_6 <= 1
 0 <= u_1_18_7 <= 1
 0 <= u_1_18_8 <= 1
 0 <= u_1_18_9 <= 1
 0 <= u_1_18_10 <= 1
 0 <= u_1_19_1 <= 1
 0 <= u_1_19_2 <= 1
 0 <= u_1_19_3 <= 1
 0 <= u_1_19_4 <= 1
 0 <= u_1_19_5 <= 1
 0 <= u_1_19_6 <= 1
 0 <= u_1_19_7 <= 1
 0 <= u_1_19_8 <= 1
 0 <= u_1_19_9 <= 1
 0 <= u_1_19_10 <= 1
 0 <= u_1_20_1 <= 1
 0 <= u_1_20_2 <= 1
 0 <= u_1_20_3 <= 1
 0 <= u_1_20_4 <= 1
 0 <= u_1_20_5 <= 1
 0 <= u_1_20_6 <= 1
 0 <= u_1_20_7 <= 1
 0 <= u_1_20_8 <= 1
 0 <= u_1_20_9 <= 1
 0 <= u_1_20_10 <= 1
 0 <= u_1_21_1 <= 1
 0 <= u_1_21_2 <= 1
 0 <= u_1_21_3 <= 1
 0 <= u_1_21_4 <= 1
 0 <= u_1_21_5 <= 1
 0 <= u_1_21_6 <= 1
 0 <= u_1_21_7 <= 1
 0 <= u_1_21_8 <= 1
 0 <= u_1_21_9 <= 1
 0 <= u_1_21_10 <= 1
 0 <= u_1_22_1 <= 1
 0 <= u_1_22_2 <= 1
 0 <= u_1_22_3 <= 1
 0 <= u_1_22_4 <= 1
 0 <= u_1_22_5 <= 1
 0 <= u_1_22_6 <= 1
 0 <= u_1_22_7 <= 1
 0 <= u_1_22_8 <= 1
 0 <= u_1_22_9 <= 1
 0 <= u_1_22_10 <= 1
 0 <= u_1_23_1 <= 1
 0 <= u_1_23_2 <= 1
 0 <= u_1_23_3 <= 1
 0 <= u_1_23_4 <= 1
 0 <= u_1_23_5 <= 1
 0 <= u_1_23_6 <= 1
 0 <= u_1_23_7 <= 1
 0 <= u_1_23_8 <= 1
 0 <= u_1_23_9 <= 1
 0 <= u_1_23_10 <= 1
 0 <= u_1_24_1 <= 1
 0 <= u_1_24_2 <= 1
 0 <= u_1_24_3 <= 1
 0 <= u_1_24_4 <= 1
 0 <= u_1_24_5 <= 1
 0 <= u_1_24_6 <= 1
 0 <= u_1_24_7 <= 1
 0 <= u_1_24_8 <= 1
 0 <= u_1_24_9 <= 1
 0 <= u_1_24_10 <= 1
 0 <= u_1_25_1 <= 1
 0 <= u_1_25_2 <= 1
 0 <= u_1_25_3 <= 1
 0 <= u_1_25_4 <= 1
 0 <= u_1_25_5 <= 1
 0 <= u_1_25_6 <= 1
 0 <= u_1_25_7 <= 1
 0 <= u_1_25_8 <= 1
 0 <= u_1_25_9 <= 1
 0 <= u_1_25_10 <= 1
 0 <= u_1_26_1 <= 1
 0 <= u_1_26_2 <= 1
 0 <= u_1_26_3 <= 1
 0 <= u_1_26_4 <= 1
 0 <= u_1_26_5 <= 1
 0 <= u_1_26_6 <= 1
 0 <= u_1_26_7 <= 1
 0 <= u_1_26_8 <= 1
 0 <= u_1_26_9 <= 1
 0 <= u_1_26_10 <= 1
 0 <= u_1_27_1 <= 1
 0 <= u_1_27_2 <= 1
 0 <= u_1_27_3 <= 1
 0 <= u_1_27_4 <= 1
 0 <= u_1_27_5 <= 1
 0 <= u_1_27_6 <= 1
 0 <= u_1_27_7 <= 1
 0 <= u_1_27_8 <= 1
 0 <= u_1_27_9 <= 1
 0 <= u_1_27_10 <= 1
 0 <= u_1_28_1 <= 1
 0 <= u_1_28_2 <= 1
 0 <= u_1_28_3 <= 1
 0 <= u_1_28_4 <= 1
 0 <= u_1_28_5 <= 1
 0 <= u_1_28_6 <= 1
 0 <= u_1_28_7 <= 1
 0 <= u_1_28_8 <= 1
 0 <= u_1_28_9 <= 1
 0 <= u_1_28_10 <= 1
 0 <= u_1_29_1 <= 1
 0 <= u_1_29_2 <= 1
 0 <= u_1_29_3 <= 1
 0 <= u_1_29_4 <= 1
 0 <= u_1_29_5 <= 1
 0 <= u_1_29_6 <= 1
 0 <= u_1_29_7 <= 1
 0 <= u_1_29_8 <= 1
 0 <= u_1_29_9 <= 1
 0 <= u_1_29_10 <= 1
 0 <= u_1_30_1 <= 1
 0 <= u_1_30_2 <= 1
 0 <= u_1_30_3 <= 1
 0 <= u_1_30_4 <= 1
 0 <= u_1_30_5 <= 1
 0 <= u_1_30_6 <= 1
 0 <= u_1_30_7 <= 1
 0 <= u_1_30_8 <= 1
 0 <= u_1_30_9 <= 1
 0 <= u_1_30_10 <= 1
 0 <= u_1_31_1 <= 1
 0 <= u_1_31_2 <= 1
 0 <= u_1_31_3 <= 1
 0 <= u_1_31_4 <= 1
 0 <= u_1_31_5 <= 1
 0 <= u_1_31_6 <= 1
 0 <= u_1_31_7 <= 1
 0 <= u_1_31_8 <= 1
 0 <= u_1_31_9 <= 1
 0 <= u_1_31_10 <= 1
 0 <= u_1_32_1 <= 1
 0 <= u_1_32_2 <= 1
 0 <= u_1_32_3 <= 1
 0 <= u_1_32_4 <= 1
 0 <= u_1_32_5 <= 1
 0 <= u_1_32_6 <= 1
 0 <= u_1_32_7 <= 1
 0 <= u_1_32_8 <= 1
 0 <= u_1_32_9 <= 1
 0 <= u_1_32_10 <= 1
 0 <= u_1_33_1 <= 1
 0 <= u_1_33_2 <= 1
 0 <= u_1_33_3 <= 1
 0 <= u_1_33_4 <= 1
 0 <= u_1_33_5 <= 1
 0 <= u_1_33_6 <= 1
 0 <= u_1_33_7 <= 1
 0 <= u_1_33_8 <= 1
 0 <= u_1_33_9 <= 1
 0 <= u_1_33_10 <= 1
 0 <= u_1_34_1 <= 1
 0 <= u_1_34_2 <= 1
 0 <= u_1_34_3 <= 1
 0 <= u_1_34_4 <= 1
 0 <= u_1_34_5 <= 1
 0 <= u_1_34_6 <= 1
 0 <= u_1_34_7 <= 1
 0 <= u_1_34_8 <= 1
 0 <= u_1_34_9 <= 1
 0 <= u_1_34_10 <= 1
 0 <= u_1_35_1 <= 1
 0 <= u_1_35_2 <= 1
 0 <= u_1_35_3 <= 1
 0 <= u_1_35_4 <= 1
 0 <= u_1_35_5 <= 1
 0 <= u_1_35_6 <= 1
 0 <= u_1_35_7 <= 1
 0 <= u_1_35_8 <= 1
 0 <= u_1_35_9 <= 1
 0 <= u_1_35_10 <= 1
 0 <= u_1_36_1 <= 1
 0 <= u_1_36_2 <= 1
 0 <= u_1_36_3 <= 1
 0 <= u_1_36_4 <= 1
 0 <= u_1_36_5 <= 1
 0 <= u_1_36_6 <= 1
 0 <= u_1_36_7 <= 1
 0 <= u_1_36_8 <= 1
 0 <= u_1_36_9 <= 1
 0 <= u_1_36_10 <= 1
 0 <= u_1_37_1 <= 1
 0 <= u_1_37_2 <= 1
 0 <= u_1_37_3 <= 1
 0 <= u_1_37_4 <= 1
 0 <= u_1_37_5 <= 1
 0 <= u_1_37_6 <= 1
 0 <= u_1_37_7 <= 1
 0 <= u_1_37_8 <= 1
 0 <= u_1_37_9 <= 1
 0 <= u_1_37_10 <= 1
 0 <= u_1_38_1 <= 1
 0 <= u_1_38_2 <= 1
 0 <= u_1_38_3 <= 1
 0 <= u_1_38_4 <= 1
 0 <= u_1_38_5 <= 1
 0 <= u_1_38_6 <= 1
 0 <= u_1_38_7 <= 1
 0 <= u_1_38_8 <= 1
 0 <= u_1_38_9 <= 1
 0 <= u_1_38_10 <= 1
 0 <= u_1_39_1 <= 1
 0 <= u_1_39_2 <= 1
 0 <= u_1_39_3 <= 1
 0 <= u_1_39_4 <= 1
 0 <= u_1_39_5 <= 1
 0 <= u_1_39_6 <= 1
 0 <= u_1_39_7 <= 1
 0 <= u_1_39_8 <= 1
 0 <= u_1_39_9 <= 1
 0 <= u_1_39_10 <= 1
 0 <= u_1_40_1 <= 1
 0 <= u_1_40_2 <= 1
 0 <= u_1_40_3 <= 1
 0 <= u_1_40_4 <= 1
 0 <= u_1_40_5 <= 1
 0 <= u_1_40_6 <= 1
 0 <= u_1_40_7 <= 1
 0 <= u_1_40_8 <= 1
 0 <= u_1_40_9 <= 1
 0 <= u_1_40_10 <= 1
 0 <= u_2_1_1 <= 1
 0 <= u_2_1_2 <= 1
 0 <= u_2_1_3 <= 1
 0 <= u_2_1_4 <= 1
 0 <= u_2_1_5 <= 1
 0 <= u_2_1_6 <= 1
 0 <= u_2_1_7 <= 1
 0 <= u_2_1_8 <= 1
 0 <= u_2_1_9 <= 1
 0 <= u_2_1_10 <= 1
 0 <= u_2_2_1 <= 1
 0 <= u_2_2_2 <= 1
 0 <= u_2_2_3 <= 1
 0 <= u_2_2_4 <= 1
 0 <= u_2_2_5 <= 1
 0 <= u_2_2_6 <= 1
 0 <= u_2_2_7 <= 1
 0 <= u_2_2_8 <= 1
 0 <= u_2_2_9 <= 1
 0 <= u_2_2_10 <= 1
 0 <= u_2_3_1 <= 1
 0 <= u_2_3_2 <= 1
 0 <= u_2_3_3 <= 1
 0 <= u_2_3_4 <= 1
 0 <= u_2_3_5 <= 1
 0 <= u_2_3_6 <= 1
 0 <= u_2_3_7 <= 1
 0 <= u_2_3_8 <= 1
 0 <= u_2_3_9 <= 1
 0 <= u_2_3_10 <= 1
 0 <= u_2_4_1 <= 1
 0 <= u_2_4_2 <= 1
 0 <= u_2_4_3 <= 1
 0 <= u_2_4_4 <= 1
 0 <= u_2_4_5 <= 1
 0 <= u_2_4_6 <= 1
 0 <= u_2_4_7 <= 1
 0 <= u_2_4_8 <= 1
 0 <= u_2_4_9 <= 1
 0 <= u_2_4_10 <= 1
 0 <= u_2_5_1 <= 1
 0 <= u_2_5_2 <= 1
 0 <= u_2_5_3 <= 1
 0 <= u_2_5_4 <= 1
 0 <= u_2_5_5 <= 1
 0 <= u_2_5_6 <= 1
 0 <= u_2_5_7 <= 1
 0 <= u_2_5_8 <= 1
 0 <= u_2_5_9 <= 1
 0 <= u_2_5_10 <= 1
 0 <= u_2_6_1 <= 1
 0 <= u_2_6_2 <= 1
 0 <= u_2_6_3 <= 1
 0 <= u_2_6_4 <= 1
 0 <= u_2_6_5 <= 1
 0 <= u_2_6_6 <= 1
 0 <= u_2_6_7 <= 1
 0 <= u_2_6_8 <= 1
 0 <= u_2_6_9 <= 1
 0 <= u_2_6_10 <= 1
 0 <= u_2_7_1 <= 1
 0 <= u_2_7_2 <= 1
 0 <= u_2_7_3 <= 1
 0 <= u_2_7_4 <= 1
 0 <= u_2_7_5 <= 1
 0 <= u_2_7_6 <= 1
 0 <= u_2_7_7 <= 1
 0 <= u_2_7_8 <= 1
 0 <= u_2_7_9 <= 1
 0 <= u_2_7_10 <= 1
 0 <= u_2_8_1 <= 1
 0 <= u_2_8_2 <= 1
 0 <= u_2_8_3 <= 1
 0 <= u_2_8_4 <= 1
 0 <= u_2_8_5 <= 1
 0 <= u_2_8_6 <= 1
 0 <= u_2_8_7 <= 1
 0 <= u_2_8_8 <= 1
 0 <= u_2_8_9 <= 1
 0 <= u_2_8_10 <= 1
 0 <= u_2_9_1 <= 1
 0 <= u_2_9_2 <= 1
 0 <= u_2_9_3 <= 1
 0 <= u_2_9_4 <= 1
 0 <= u_2_9_5 <= 1
 0 <= u_2_9_6 <= 1
 0 <= u_2_9_7 <= 1
 0 <= u_2_9_8 <= 1
 0 <= u_2_9_9 <= 1
 0 <= u_2_9_10 <= 1
 0 <= u_2_10_1 <= 1
 0 <= u_2_10_2 <= 1
 0 <= u_2_10_3 <= 1
 0 <= u_2_10_4 <= 1
 0 <= u_2_10_5 <= 1
 0 <= u_2_10_6 <= 1
 0 <= u_2_10_7 <= 1
 0 <= u_2_10_8 <= 1
 0 <= u_2_10_9 <= 1
 0 <= u_2_10_10 <= 1
 0 <= u_2_11_1 <= 1
 0 <= u_2_11_2 <= 1
 0 <= u_2_11_3 <= 1
 0 <= u_2_11_4 <= 1
 0 <= u_2_11_5 <= 1
 0 <= u_2_11_6 <= 1
 0 <= u_2_11_7 <= 1
 0 <= u_2_11_8 <= 1
 0 <= u_2_11_9 <= 1
 0 <= u_2_11_10 <= 1
 0 <= u_2_12_1 <= 1
 0 <= u_2_12_2 <= 1
 0 <= u_2_12_3 <= 1
 0 <= u_2_12_4 <= 1
 0 <= u_2_12_5 <= 1
 0 <= u_2_12_6 <= 1
 0 <= u_2_12_7 <= 1
 0 <= u_2_12_8 <= 1
 0 <= u_2_12_9 <= 1
 0 <= u_2_12_10 <= 1
 0 <= u_2_13_1 <= 1
 0 <= u_2_13_2 <= 1
 0 <= u_2_13_3 <= 1
 0 <= u_2_13_4 <= 1
 0 <= u_2_13_5 <= 1
 0 <= u_2_13_6 <= 1
 0 <= u_2_13_7 <= 1
 0 <= u_2_13_8 <= 1
 0 <= u_2_13_9 <= 1
 0 <= u_2_13_10 <= 1
 0 <= u_2_14_1 <= 1
 0 <= u_2_14_2 <= 1
 0 <= u_2_14_3 <= 1
 0 <= u_2_14_4 <= 1
 0 <= u_2_14_5 <= 1
 0 <= u_2_14_6 <= 1
 0 <= u_2_14_7 <= 1
 0 <= u_2_14_8 <= 1
 0 <= u_2_14_9 <= 1
 0 <= u_2_14_10 <= 1
 0 <= u_2_15_1 <= 1
 0 <= u_2_15_2 <= 1
 0 <= u_2_15_3 <= 1
 0 <= u_2_15_4 <= 1
 0 <= u_2_15_5 <= 1
 0 <= u_2_15_6 <= 1
 0 <= u_2_15_7 <= 1
 0 <= u_2_15_8 <= 1
 0 <= u_2_15_9 <= 1
 0 <= u_2_15_10 <= 1
 0 <= u_2_16_1 <= 1
 0 <= u_2_16_2 <= 1
 0 <= u_2_16_3 <= 1
 0 <= u_2_16_4 <= 1
 0 <= u_2_16_5 <= 1
 0 <= u_2_16_6 <= 1
 0 <= u_2_16_7 <= 1
 0 <= u_2_16_8 <= 1
 0 <= u_2_16_9 <= 1
 0 <= u_2_16_10 <= 1
 0 <= u_2_17_1 <= 1
 0 <= u_2_17_2 <= 1
 0 <= u_2_17_3 <= 1
 0 <= u_2_17_4 <= 1
 0 <= u_2_17_5 <= 1
 0 <= u_2_17_6 <= 1
 0 <= u_2_17_7 <= 1
 0 <= u_2_17_8 <= 1
 0 <= u_2_17_9 <= 1
 0 <= u_2_17_10 <= 1
 0 <= u_2_18_1 <= 1
 0 <= u_2_18_2 <= 1
 0 <= u_2_18_3 <= 1
 0 <= u_2_18_4 <= 1
 0 <= u_2_18_5 <= 1
 0 <= u_2_18_6 <= 1
 0 <= u_2_18_7 <= 1
 0 <= u_2_18_8 <= 1
 0 <= u_2_18_9 <= 1
 0 <= u_2_18_10 <= 1
 0 <= u_2_19_1 <= 1
 0 <= u_2_19_2 <= 1
 0 <= u_2_19_3 <= 1
 0 <= u_2_19_4 <= 1
 0 <= u_2_19_5 <= 1
 0 <= u_2_19_6 <= 1
 0 <= u_2_19_7 <= 1
 0 <= u_2_19_8 <= 1
 0 <= u_2_19_9 <= 1
 0 <= u_2_19_10 <= 1
 0 <= u_2_20_1 <= 1
 0 <= u_2_20_2 <= 1
 0 <= u_2_20_3 <= 1
 0 <= u_2_20_4 <= 1
 0 <= u_2_20_5 <= 1
 0 <= u_2_20_6 <= 1
 0 <= u_2_20_7 <= 1
 0 <= u_2_20_8 <= 1
 0 <= u_2_20_9 <= 1
 0 <= u_2_20_10 <= 1
 0 <= u_2_21_1 <= 1
 0 <= u_2_21_2 <= 1
 0 <= u_2_21_3 <= 1
 0 <= u_2_21_4 <= 1
 0 <= u_2_21_5 <= 1
 0 <= u_2_21_6 <= 1
 0 <= u_2_21_7 <= 1
 0 <= u_2_21_8 <= 1
 0 <= u_2_21_9 <= 1
 0 <= u_2_21_10 <= 1
 0 <= u_2_22_1 <= 1
 0 <= u_2_22_2 <= 1
 0 <= u_2_22_3 <= 1
 0 <= u_2_22_4 <= 1
 0 <= u_2_22_5 <= 1
 0 <= u_2_22_6 <= 1
 0 <= u_2_22_7 <= 1
 0 <= u_2_22_8 <= 1
 0 <= u_2_22_9 <= 1
 0 <= u_2_22_10 <= 1
 0 <= u_2_23_1 <= 1
 0 <= u_2_23_2 <= 1
 0 <= u_2_23_3 <= 1
 0 <= u_2_23_4 <= 1
 0 <= u_2_23_5 <= 1
 0 <= u_2_23_6 <= 1
 0 <= u_2_23_7 <= 1
 0 <= u_2_23_8 <= 1
 0 <= u_2_23_9 <= 1
 0 <= u_2_23_10 <= 1
 0 <= u_2_24_1 <= 1
 0 <= u_2_24_2 <= 1
 0 <= u_2_24_3 <= 1
 0 <= u_2_24_4 <= 1
 0 <= u_2_24_5 <= 1
 0 <= u_2_24_6 <= 1
 0 <= u_2_24_7 <= 1
 0 <= u_2_24_8 <= 1
 0 <= u_2_24_9 <= 1
 0 <= u_2_24_10 <= 1
 0 <= u_2_25_1 <= 1
 0 <= u_2_25_2 <= 1
 0 <= u_2_25_3 <= 1
 0 <= u_2_25_4 <= 1
 0 <= u_2_25_5 <= 1
 0 <= u_2_25_6 <= 1
 0 <= u_2_25_7 <= 1
 0 <= u_2_25_8 <= 1
 0 <= u_2_25_9 <= 1
 0 <= u_2_25_10 <= 1
 0 <= u_2_26_1 <= 1
 0 <= u_2_26_2 <= 1
 0 <= u_2_26_3 <= 1
 0 <= u_2_26_4 <= 1
 0 <= u_2_26_5 <= 1
 0 <= u_2_26_6 <= 1
 0 <= u_2_26_7 <= 1
 0 <= u_2_26_8 <= 1
 0 <= u_2_26_9 <= 1
 0 <= u_2_26_10 <= 1
 0 <= u_2_27_1 <= 1
 0 <= u_2_27_2 <= 1
 0 <= u_2_27_3 <= 1
 0 <= u_2_27_4 <= 1
 0 <= u_2_27_5 <= 1
 0 <= u_2_27_6 <= 1
 0 <= u_2_27_7 <= 1
 0 <= u_2_27_8 <= 1
 0 <= u_2_27_9 <= 1
 0 <= u_2_27_10 <= 1
 0 <= u_2_28_1 <= 1
 0 <= u_2_28_2 <= 1
 0 <= u_2_28_3 <= 1
 0 <= u_2_28_4 <= 1
 0 <= u_2_28_5 <= 1
 0 <= u_2_28_6 <= 1
 0 <= u_2_28_7 <= 1
 0 <= u_2_28_8 <= 1
 0 <= u_2_28_9 <= 1
 0 <= u_2_28_10 <= 1
 0 <= u_2_29_1 <= 1
 0 <= u_2_29_2 <= 1
 0 <= u_2_29_3 <= 1
 0 <= u_2_29_4 <= 1
 0 <= u_2_29_5 <= 1
 0 <= u_2_29_6 <= 1
 0 <= u_2_29_7 <= 1
 0 <= u_2_29_8 <= 1
 0 <= u_2_29_9 <= 1
 0 <= u_2_29_10 <= 1
 0 <= u_2_30_1 <= 1
 0 <= u_2_30_2 <= 1
 0 <= u_2_30_3 <= 1
 0 <= u_2_30_4 <= 1
 0 <= u_2_30_5 <= 1
 0 <= u_2_30_6 <= 1
 0 <= u_2_30_7 <= 1
 0 <= u_2_30_8 <= 1
 0 <= u_2_30_9 <= 1
 0 <= u_2_30_10 <= 1
 0 <= u_2_31_1 <= 1
 0 <= u_2_31_2 <= 1
 0 <= u_2_31_3 <= 1
 0 <= u_2_31_4 <= 1
 0 <= u_2_31_5 <= 1
 0 <= u_2_31_6 <= 1
 0 <= u_2_31_7 <= 1
 0 <= u_2_31_8 <= 1
 0 <= u_2_31_9 <= 1
 0 <= u_2_31_10 <= 1
 0 <= u_2_32_1 <= 1
 0 <= u_2_32_2 <= 1
 0 <= u_2_32_3 <= 1
 0 <= u_2_32_4 <= 1
 0 <= u_2_32_5 <= 1
 0 <= u_2_32_6 <= 1
 0 <= u_2_32_7 <= 1
 0 <= u_2_32_8 <= 1
 0 <= u_2_32_9 <= 1
 0 <= u_2_32_10 <= 1
 0 <= u_2_33_1 <= 1
 0 <= u_2_33_2 <= 1
 0 <= u_2_33_3 <= 1
 0 <= u_2_33_4 <= 1
 0 <= u_2_33_5 <= 1
 0 <= u_2_33_6 <= 1
 0 <= u_2_33_7 <= 1
 0 <= u_2_33_8 <= 1
 0 <= u_2_33_9 <= 1
 0 <= u_2_33_10 <= 1
 0 <= u_2_34_1 <= 1
 0 <= u_2_34_2 <= 1
 0 <= u_2_34_3 <= 1
 0 <= u_2_34_4 <= 1
 0 <= u_2_34_5 <= 1
 0 <= u_2_34_6 <= 1
 0 <= u_2_34_7 <= 1
 0 <= u_2_34_8 <= 1
 0 <= u_2_34_9 <= 1
 0 <= u_2_34_10 <= 1
 0 <= u_2_35_1 <= 1
 0 <= u_2_35_2 <= 1
 0 <= u_2_35_3 <= 1
 0 <= u_2_35_4 <= 1
 0 <= u_2_35_5 <= 1
 0 <= u_2_35_6 <= 1
 0 <= u_2_35_7 <= 1
 0 <= u_2_35_8 <= 1
 0 <= u_2_35_9 <= 1
 0 <= u_2_35_10 <= 1
 0 <= u_2_36_1 <= 1
 0 <= u_2_36_2 <= 1
 0 <= u_2_36_3 <= 1
 0 <= u_2_36_4 <= 1
 0 <= u_2_36_5 <= 1
 0 <= u_2_36_6 <= 1
 0 <= u_2_36_7 <= 1
 0 <= u_2_36_8 <= 1
 0 <= u_2_36_9 <= 1
 0 <= u_2_36_10 <= 1
 0 <= u_2_37_1 <= 1
 0 <= u_2_37_2 <= 1
 0 <= u_2_37_3 <= 1
 0 <= u_2_37_4 <= 1
 0 <= u_2_37_5 <= 1
 0 <= u_2_37_6 <= 1
 0 <= u_2_37_7 <= 1
 0 <= u_2_37_8 <= 1
 0 <= u_2_37_9 <= 1
 0 <= u_2_37_10 <= 1
 0 <= u_2_38_1 <= 1
 0 <= u_2_38_2 <= 1
 0 <= u_2_38_3 <= 1
 0 <= u_2_38_4 <= 1
 0 <= u_2_38_5 <= 1
 0 <= u_2_38_6 <= 1
 0 <= u_2_38_7 <= 1
 0 <= u_2_38_8 <= 1
 0 <= u_2_38_9 <= 1
 0 <= u_2_38_10 <= 1
 0 <= u_2_39_1 <= 1
 0 <= u_2_39_2 <= 1
 0 <= u_2_39_3 <= 1
 0 <= u_2_39_4 <= 1
 0 <= u_2_39_5 <= 1
 0 <= u_2_39_6 <= 1
 0 <= u_2_39_7 <= 1
 0 <= u_2_39_8 <= 1
 0 <= u_2_39_9 <= 1
 0 <= u_2_39_10 <= 1
 0 <= u_2_40_1 <= 1
 0 <= u_2_40_2 <= 1
 0 <= u_2_40_3 <= 1
 0 <= u_2_40_4 <= 1
 0 <= u_2_40_5 <= 1
 0 <= u_2_40_6 <= 1
 0 <= u_2_40_7 <= 1
 0 <= u_2_40_8 <= 1
 0 <= u_2_40_9 <= 1
 0 <= u_2_40_10 <= 1
Binaries
 z_1_0 z_1_1 z_1_2 z_1_3 z_1_4 z_1_5 z_1_6 z_1_7 z_1_8 z_1_9 z_1_10 z_1_11 z_1_12 z_2_0 z_2_1 z_2_2 z_2_3
 z_2_4 z_2_5 z_2_6 z_2_7 z_2_8 z_2_9 z_2_10 z_2_11 z_2_12 z_3_0 z_3_1 z_3_2 z_3_3 z_3_4 z_3_5 z_3_6 z_3_7
 z_3_8 z_3_9 z_3_10 z_3_11 z_3_12 z_4_0 z_4_1 z_4_2 z_4_3 z_4_4 z_4_5 z_4_6 z_4_7 z_4_8 z_4_9 z_4_10 z_4_11
 z_4_12 z_5_0 z_5_1 z_5_2 z_5_3 z_5_4 z_5_5 z_5_6 z_5_7 z_5_8 z_5_9 z_5_10 z_5_11 z_5_12 z_6_0 z_6_1 z_6_2
 z_6_3 z_6_4 z_6_5 z_6_6 z_6_7 z_6_8 z_6_9 z_6_10 z_6_11 z_6_12 z_7_0 z_7_1 z_7_2 z_7_3 z_7_4 z_7_5 z_7_6
 z_7_7 z_7_8 z_7_9 z_7_10 z_7_11 z_7_12 z_8_0 z_8_1 z_8_2 z_8_3 z_8_4 z_8_5 z_8_6 z_8_7 z_8_8 z_8_9 z_8_10
 z_8_11 z_8_12 z_9_0 z_9_1 z_9_2 z_9_3 z_9_4 z_9_5 z_9_6 z_9_7 z_9_8 z_9_9 z_9_10 z_9_11 z_9_12 z_10_0
 z_10_1 z_10_2 z_10_3 z_10_4 z_10_5 z_10_6 z_10_7 z_10_8 z_10_9 z_10_10 z_10_11 z_10_12 x_1_1 x_1_2 x_2_1
 x_2_2 x_3_1 x_3_2 x_4_1 x_4_2 x_5_1 x_5_2 x_6_1 x_6_2 x_7_1 x_7_2 x_8_1 x_8_2 x_9_1 x_9_2 x_10_1 x_10_2
 y_1_1 y_1_2 y_1_3 y_1_4 y_1_5 y_1_6 y_1_7 y_1_8 y_1_9 y_1_10 y_2_1 y_2_2 y_2_3 y_2_4 y_2_5 y_2_6 y_2_7
 y_2_8 y_2_9 y_2_10 s_1_2 s_1_3 s_1_4 s_1_5 s_1_6 s_1_7 s_1_8 s_1_9 s_1_10 s_2_3 s_2_4 s_2_5 s_2_6 s_2_7
 s_2_8 s_2_9 s_2_10 s_3_4 s_3_5 s_3_6 s_3_7 s_3_8 s_3_9 s_3_10 s_4_5 s_4_6 s_4_7 s_4_8 s_4_9 s_4_10 s_5_6
 s_5_7 s_5_8 s_5_9 s_5_10 s_6_7 s_6_8 s_6_9 s_6_10 s_7_8 s_7_9 s_7_10 s_8_9 s_8_10 s_9_10 h_1_2 h_1_3
 h_1_4 h_1_5 h_1_6 h_1_7 h_1_8 h_1_9 h_1_10 h_2_3 h_2_4 h_2_5 h_2_6 h_2_7 h_2_8 h_2_9 h_2_10 h_3_4 h_3_5
 h_3_6 h_3_7 h_3_8 h_3_9 h_3_10 h_4_5 h_4_6 h_4_7 h_4_8 h_4_9 h_4_10 h_5_6 h_5_7 h_5_8 h_5_9 h_5_10 h_6_7
 h_6_8 h_6_9 h_6_10 h_7_8 h_7_9 h_7_10 h_8_9 h_8_10 h_9_10 pec_0_1 pec_0_2 pec_0_3 pec_0_4 pec_0_5 pec_0_6
 pec_0_7 pec_0_8 pec_0_9 pec_0_10 pec_1_1 pec_1_2 pec_1_3 pec_1_4 pec_1_5 pec_1_6 pec_1_7 pec_1_8 pec_1_9
 pec_1_10 pec_2_1 pec_2_2 pec_2_3 pec_2_4 pec_2_5 pec_2_6 pec_2_7 pec_2_8 pec_2_9 pec_2_10 pec_3_1 pec_3_2
 pec_3_3 pec_3_4 pec_3_5 pec_3_6 pec_3_7 pec_3_8 pec_3_9 pec_3_10 pec_4_1 pec_4_2 pec_4_3 pec_4_4 pec_4_5
 pec_4_6 pec_4_7 pec_4_8 pec_4_9 pec_4_10 w_1_1 w_1_2 w_1_3 w_1_4 w_1_5 w_1_6 w_1_7 w_1_8 w_1_9 w_1_10
 w_2_1 w_2_2 w_2_3 w_2_4 w_2_5 w_2_6 w_2_7 w_2_8 w_2_9 w_2_10 w_3_1 w_3_2 w_3_3 w_3_4 w_3_5 w_3_6 w_3_7
 w_3_8 w_3_9 w_3_10 w_4_1 w_4_2 w_4_3 w_4_4 w_4_5 w_4_6 w_4_7 w_4_8 w_4_9 w_4_10 w_5_1 w_5_2 w_5_3 w_5_4
 w_5_5 w_5_6 w_5_7 w_5_8 w_5_9 w_5_10 w_6_1 w_6_2 w_6_3 w_6_4 w_6_5 w_6_6 w_6_7 w_6_8 w_6_9 w_6_10 w_7_1
 w_7_2 w_7_3 w_7_4 w_7_5 w_7_6 w_7_7 w_7_8 w_7_9 w_7_10 w_8_1 w_8_2 w_8_3 w_8_4 w_8_5 w_8_6 w_8_7 w_8_8
 w_8_9 w_8_10 w_9_1 w_9_2 w_9_3 w_9_4 w_9_5 w_9_6 w_9_7 w_9_8 w_9_9 w_9_10 w_10_1 w_10_2 w_10_3 w_10_4
 w_10_5 w_10_6 w_10_7 w_10_8 w_10_9 w_10_10 w_11_1 w_11_2 w_11_3 w_11_4 w_11_5 w_11_6 w_11_7 w_11_8 w_11_9
 w_11_10 w_12_1 w_12_2 w_12_3 w_12_4 w_12_5 w_12_6 w_12_7 w_12_8 w_12_9 w_12_10 w_13_1 w_13_2 w_13_3 w_13_4
 w_13_5 w_13_6 w_13_7 w_13_8 w_13_9 w_13_10 w_14_1 w_14_2 w_14_3 w_14_4 w_14_5 w_14_6 w_14_7 w_14_8 w_14_9
 w_14_10 w_15_1 w_15_2 w_15_3 w_15_4 w_15_5 w_15_6 w_15_7 w_15_8 w_15_9 w_15_10 w_16_1 w_16_2 w_16_3 w_16_4
 w_16_5 w_16_6 w_16_7 w_16_8 w_16_9 w_16_10 w_17_1 w_17_2 w_17_3 w_17_4 w_17_5 w_17_6 w_17_7 w_17_8 w_17_9
 w_17_10 w_18_1 w_18_2 w_18_3 w_18_4 w_18_5 w_18_6 w_18_7 w_18_8 w_18_9 w_18_10 w_19_1 w_19_2 w_19_3 w_19_4
 w_19_5 w_19_6 w_19_7 w_19_8 w_19_9 w_19_10 w_20_1 w_20_2 w_20_3 w_20_4 w_20_5 w_20_6 w_20_7 w_20_8 w_20_9
 w_20_10 w_21_1 w_21_2 w_21_3 w_21_4 w_21_5 w_21_6 w_21_7 w_21_8 w_21_9 w_21_10 w_22_1 w_22_2 w_22_3 w_22_4
 w_22_5 w_22_6 w_22_7 w_22_8 w_22_9 w_22_10 w_23_1 w_23_2 w_23_3 w_23_4 w_23_5 w_23_6 w_23_7 w_23_8 w_23_9
 w_23_10 w_24_1 w_24_2 w_24_3 w_24_4 w_24_5 w_24_6 w_24_7 w_24_8 w_24_9 w_24_10 w_25_1 w_25_2 w_25_3 w_25_4
 w_25_5 w_25_6 w_25_7 w_25_8 w_25_9 w_25_10 w_26_1 w_26_2 w_26_3 w_26_4 w_26_5 w_26_6 w_26_7 w_26_8 w_26_9
 w_26_10 w_27_1 w_27_2 w_27_3 w_27_4 w_27_5 w_27_6 w_27_7 w_27_8 w_27_9 w_27_10 w_28_1 w_28_2 w_28_3 w_28_4
 w_28_5 w_28_6 w_28_7 w_28_8 w_28_9 w_28_10 w_29_1 w_29_2 w_29_3 w_29_4 w_29_5 w_29_6 w_29_7 w_29_8 w_29_9
 w_29_10 w_30_1 w_30_2 w_30_3 w_30_4 w_30_5 w_30_6 w_30_7 w_30_8 w_30_9 w_30_10 w_31_1 w_31_2 w_31_3 w_31_4
 w_31_5 w_31_6 w_31_7 w_31_8 w_31_9 w_31_10 w_32_1 w_32_2 w_32_3 w_32_4 w_32_5 w_32_6 w_32_7 w_32_8 w_32_9
 w_32_10 w_33_1 w_33_2 w_33_3 w_33_4 w_33_5 w_33_6 w_33_7 w_33_8 w_33_9 w_33_10 w_34_1 w_34_2 w_34_3 w_34_4
 w_34_5 w_34_6 w_34_7 w_34_8 w_34_9 w_34_10 w_35_1 w_35_2 w_35_3 w_35_4 w_35_5 w_35_6 w_35_7 w_35_8 w_35_9
 w_35_10 w_36_1 w_36_2 w_36_3 w_36_4 w_36_5 w_36_6 w_36_7 w_36_8 w_36_9 w_36_10 w_37_1 w_37_2 w_37_3 w_37_4
 w_37_5 w_37_6 w_37_7 w_37_8 w_37_9 w_37_10 w_38_1 w_38_2 w_38_3 w_38_4 w_38_5 w_38_6 w_38_7 w_38_8 w_38_9
 w_38_10 w_39_1 w_39_2 w_39_3 w_39_4 w_39_5 w_39_6 w_39_7 w_39_8 w_39_9 w_39_10 w_40_1 w_40_2 w_40_3 w_40_4
 w_40_5 w_40_6 w_40_7 w_40_8 w_40_9 w_40_10 mode_1_1 mode_1_2 mode_1_3 mode_1_4 mode_1_5 mode_1_6 mode_1_7
 mode_1_8 mode_1_9 mode_1_10 mode_1_11 mode_1_12 mode_1_13 mode_1_14 mode_1_15 mode_1_16 mode_1_17 mode_1_18
 mode_1_19 mode_1_20 mode_1_21 mode_1_22 mode_1_23 mode_1_24 mode_1_25 mode_1_26 mode_1_27 mode_1_28 mode_1_29
 mode_1_30 mode_1_31 mode_1_32 mode_1_33 mode_1_34 mode_1_35 mode_1_36 mode_1_37 mode_1_38 mode_1_39 mode_1_40
 mode_2_1 mode_2_2 mode_2_3 mode_2_4 mode_2_5 mode_2_6 mode_2_7 mode_2_8 mode_2_9 mode_2_10 mode_2_11
 mode_2_12 mode_2_13 mode_2_14 mode_2_15 mode_2_16 mode_2_17 mode_2_18 mode_2_19 mode_2_20 mode_2_21 mode_2_22
 mode_2_23 mode_2_24 mode_2_25 mode_2_26 mode_2_27 mode_2_28 mode_2_29 mode_2_30 mode_2_31 mode_2_32 mode_2_33
 mode_2_34 mode_2_35 mode_2_36 mode_2_37 mode_2_38 mode_2_39 mode_2_40 u_1_1_1 u_1_1_2 u_1_1_3 u_1_1_4
 u_1_1_5 u_1_1_6 u_1_1_7 u_1_1_8 u_1_1_9 u_1_1_10 u_1_2_1 u_1_2_2 u_1_2_3 u_1_2_4 u_1_2_5 u_1_2_6 u_1_2_7
 u_1_2_8 u_1_2_9 u_1_2_10 u_1_3_1 u_1_3_2 u_1_3_3 u_1_3_4 u_1_3_5 u_1_3_6 u_1_3_7 u_1_3_8 u_1_3_9 u_1_3_10
 u_1_4_1 u_1_4_2 u_1_4_3 u_1_4_4 u_1_4_5 u_1_4_6 u_1_4_7 u_1_4_8 u_1_4_9 u_1_4_10 u_1_5_1 u_1_5_2 u_1_5_3
 u_1_5_4 u_1_5_5 u_1_5_6 u_1_5_7 u_1_5_8 u_1_5_9 u_1_5_10 u_1_6_1 u_1_6_2 u_1_6_3 u_1_6_4 u_1_6_5 u_1_6_6
 u_1_6_7 u_1_6_8 u_1_6_9 u_1_6_10 u_1_7_1 u_1_7_2 u_1_7_3 u_1_7_4 u_1_7_5 u_1_7_6 u_1_7_7 u_1_7_8 u_1_7_9
 u_1_7_10 u_1_8_1 u_1_8_2 u_1_8_3 u_1_8_4 u_1_8_5 u_1_8_6 u_1_8_7 u_1_8_8 u_1_8_9 u_1_8_10 u_1_9_1 u_1_9_2
 u_1_9_3 u_1_9_4 u_1_9_5 u_1_9_6 u_1_9_7 u_1_9_8 u_1_9_9 u_1_9_10 u_1_10_1 u_1_10_2 u_1_10_3 u_1_10_4
 u_1_10_5 u_1_10_6 u_1_10_7 u_1_10_8 u_1_10_9 u_1_10_10 u_1_11_1 u_1_11_2 u_1_11_3 u_1_11_4 u_1_11_5 u_1_11_6
 u_1_11_7 u_1_11_8 u_1_11_9 u_1_11_10 u_1_12_1 u_1_12_2 u_1_12_3 u_1_12_4 u_1_12_5 u_1_12_6 u_1_12_7 u_1_12_8
 u_1_12_9 u_1_12_10 u_1_13_1 u_1_13_2 u_1_13_3 u_1_13_4 u_1_13_5 u_1_13_6 u_1_13_7 u_1_13_8 u_1_13_9 u_1_13_10
 u_1_14_1 u_1_14_2 u_1_14_3 u_1_14_4 u_1_14_5 u_1_14_6 u_1_14_7 u_1_14_8 u_1_14_9 u_1_14_10 u_1_15_1 u_1_15_2
 u_1_15_3 u_1_15_4 u_1_15_5 u_1_15_6 u_1_15_7 u_1_15_8 u_1_15_9 u_1_15_10 u_1_16_1 u_1_16_2 u_1_16_3 u_1_16_4
 u_1_16_5 u_1_16_6 u_1_16_7 u_1_16_8 u_1_16_9 u_1_16_10 u_1_17_1 u_1_17_2 u_1_17_3 u_1_17_4 u_1_17_5 u_1_17_6
 u_1_17_7 u_1_17_8 u_1_17_9 u_1_17_10 u_1_18_1 u_1_18_2 u_1_18_3 u_1_18_4 u_1_18_5 u_1_18_6 u_1_18_7 u_1_18_8
 u_1_18_9 u_1_18_10 u_1_19_1 u_1_19_2 u_1_19_3 u_1_19_4 u_1_19_5 u_1_19_6 u_1_19_7 u_1_19_8 u_1_19_9 u_1_19_10
 u_1_20_1 u_1_20_2 u_1_20_3 u_1_20_4 u_1_20_5 u_1_20_6 u_1_20_7 u_1_20_8 u_1_20_9 u_1_20_10 u_1_21_1 u_1_21_2
 u_1_21_3 u_1_21_4 u_1_21_5 u_1_21_6 u_1_21_7 u_1_21_8 u_1_21_9 u_1_21_10 u_1_22_1 u_1_22_2 u_1_22_3 u_1_22_4
 u_1_22_5 u_1_22_6 u_1_22_7 u_1_22_8 u_1_22_9 u_1_22_10 u_1_23_1 u_1_23_2 u_1_23_3 u_1_23_4 u_1_23_5 u_1_23_6
 u_1_23_7 u_1_23_8 u_1_23_9 u_1_23_10 u_1_24_1 u_1_24_2 u_1_24_3 u_1_24_4 u_1_24_5 u_1_24_6 u_1_24_7 u_1_24_8
 u_1_24_9 u_1_24_10 u_1_25_1 u_1_25_2 u_1_25_3 u_1_25_4 u_1_25_5 u_1_25_6 u_1_25_7 u_1_25_8 u_1_25_9 u_1_25_10
 u_1_26_1 u_1_26_2 u_1_26_3 u_1_26_4 u_1_26_5 u_1_26_6 u_1_26_7 u_1_26_8 u_1_26_9 u_1_26_10 u_1_27_1 u_1_27_2
 u_1_27_3 u_1_27_4 u_1_27_5 u_1_27_6 u_1_27_7 u_1_27_8 u_1_27_9 u_1_27_10 u_1_28_1 u_1_28_2 u_1_28_3 u_1_28_4
 u_1_28_5 u_1_28_6 u_1_28_7 u_1_28_8 u_1_28_9 u_1_28_10 u_1_29_1 u_1_29_2 u_1_29_3 u_1_29_4 u_1_29_5 u_1_29_6
 u_1_29_7 u_1_29_8 u_1_29_9 u_1_29_10 u_1_30_1 u_1_30_2 u_1_30_3 u_1_30_4 u_1_30_5 u_1_30_6 u_1_30_7 u_1_30_8
 u_1_30_9 u_1_30_10 u_1_31_1 u_1_31_2 u_1_31_3 u_1_31_4 u_1_31_5 u_1_31_6 u_1_31_7 u_1_31_8 u_1_31_9 u_1_31_10
 u_1_32_1 u_1_32_2 u_1_32_3 u_1_32_4 u_1_32_5 u_1_32_6 u_1_32_7 u_1_32_8 u_1_32_9 u_1_32_10 u_1_33_1 u_1_33_2
 u_1_33_3 u_1_33_4 u_1_33_5 u_1_33_6 u_1_33_7 u_1_33_8 u_1_33_9 u_1_33_10 u_1_34_1 u_1_34_2 u_1_34_3 u_1_34_4
 u_1_34_5 u_1_34_6 u_1_34_7 u_1_34_8 u_1_34_9 u_1_34_10 u_1_35_1 u_1_35_2 u_1_35_3 u_1_35_4 u_1_35_5 u_1_35_6
 u_1_35_7 u_1_35_8 u_1_35_9 u_1_35_10 u_1_36_1 u_1_36_2 u_1_36_3 u_1_36_4 u_1_36_5 u_1_36_6 u_1_36_7 u_1_36_8
 u_1_36_9 u_1_36_10 u_1_37_1 u_1_37_2 u_1_37_3 u_1_37_4 u_1_37_5 u_1_37_6 u_1_37_7 u_1_37_8 u_1_37_9 u_1_37_10
 u_1_38_1 u_1_38_2 u_1_38_3 u_1_38_4 u_1_38_5 u_1_38_6 u_1_38_7 u_1_38_8 u_1_38_9 u_1_38_10 u_1_39_1 u_1_39_2
 u_1_39_3 u_1_39_4 u_1_39_5 u_1_39_6 u_1_39_7 u_1_39_8 u_1_39_9 u_1_39_10 u_1_40_1 u_1_40_2 u_1_40_3 u_1_40_4
 u_1_40_5 u_1_40_6 u_1_40_7 u_1_40_8 u_1_40_9 u_1_40_10 u_2_1_1 u_2_1_2 u_2_1_3 u_2_1_4 u_2_1_5 u_2_1_6
 u_2_1_7 u_2_1_8 u_2_1_9 u_2_1_10 u_2_2_1 u_2_2_2 u_2_2_3 u_2_2_4 u_2_2_5 u_2_2_6 u_2_2_7 u_2_2_8 u_2_2_9
 u_2_2_10 u_2_3_1 u_2_3_2 u_2_3_3 u_2_3_4 u_2_3_5 u_2_3_6 u_2_3_7 u_2_3_8 u_2_3_9 u_2_3_10 u_2_4_1 u_2_4_2
 u_2_4_3 u_2_4_4 u_2_4_5 u_2_4_6 u_2_4_7 u_2_4_8 u_2_4_9 u_2_4_10 u_2_5_1 u_2_5_2 u_2_5_3 u_2_5_4 u_2_5_5
 u_2_5_6 u_2_5_7 u_2_5_8 u_2_5_9 u_2_5_10 u_2_6_1 u_2_6_2 u_2_6_3 u_2_6_4 u_2_6_5 u_2_6_6 u_2_6_7 u_2_6_8
 u_2_6_9 u_2_6_10 u_2_7_1 u_2_7_2 u_2_7_3 u_2_7_4 u_2_7_5 u_2_7_6 u_2_7_7 u_2_7_8 u_2_7_9 u_2_7_10 u_2_8_1
 u_2_8_2 u_2_8_3 u_2_8_4 u_2_8_5 u_2_8_6 u_2_8_7 u_2_8_8 u_2_8_9 u_2_8_10 u_2_9_1 u_2_9_2 u_2_9_3 u_2_9_4
 u_2_9_5 u_2_9_6 u_2_9_7 u_2_9_8 u_2_9_9 u_2_9_10 u_2_10_1 u_2_10_2 u_2_10_3 u_2_10_4 u_2_10_5 u_2_10_6
 u_2_10_7 u_2_10_8 u_2_10_9 u_2_10_10 u_2_11_1 u_2_11_2 u_2_11_3 u_2_11_4 u_2_11_5 u_2_11_6 u_2_11_7 u_2_11_8
 u_2_11_9 u_2_11_10 u_2_12_1 u_2_12_2 u_2_12_3 u_2_12_4 u_2_12_5 u_2_12_6 u_2_12_7 u_2_12_8 u_2_12_9 u_2_12_10
 u_2_13_1 u_2_13_2 u_2_13_3 u_2_13_4 u_2_13_5 u_2_13_6 u_2_13_7 u_2_13_8 u_2_13_9 u_2_13_10 u_2_14_1 u_2_14_2
 u_2_14_3 u_2_14_4 u_2_14_5 u_2_14_6 u_2_14_7 u_2_14_8 u_2_14_9 u_2_14_10 u_2_15_1 u_2_15_2 u_2_15_3 u_2_15_4
 u_2_15_5 u_2_15_6 u_2_15_7 u_2_15_8 u_2_15_9 u_2_15_10 u_2_16_1 u_2_16_2 u_2_16_3 u_2_16_4 u_2_16_5 u_2_16_6
 u_2_16_7 u_2_16_8 u_2_16_9 u_2_16_10 u_2_17_1 u_2_17_2 u_2_17_3 u_2_17_4 u_2_17_5 u_2_17_6 u_2_17_7 u_2_17_8
 u_2_17_9 u_2_17_10 u_2_18_1 u_2_18_2 u_2_18_3 u_2_18_4 u_2_18_5 u_2_18_6 u_2_18_7 u_2_18_8 u_2_18_9 u_2_18_10
 u_2_19_1 u_2_19_2 u_2_19_3 u_2_19_4 u_2_19_5 u_2_19_6 u_2_19_7 u_2_19_8 u_2_19_9 u_2_19_10 u_2_20_1 u_2_20_2
 u_2_20_3 u_2_20_4 u_2_20_5 u_2_20_6 u_2_20_7 u_2_20_8 u_2_20_9 u_2_20_10 u_2_21_1 u_2_21_2 u_2_21_3 u_2_21_4
 u_2_21_5 u_2_21_6 u_2_21_7 u_2_21_8 u_2_21_9 u_2_21_10 u_2_22_1 u_2_22_2 u_2_22_3 u_2_22_4 u_2_22_5 u_2_22_6
 u_2_22_7 u_2_22_8 u_2_22_9 u_2_22_10 u_2_23_1 u_2_23_2 u_2_23_3 u_2_23_4 u_2_23_5 u_2_23_6 u_2_23_7 u_2_23_8
 u_2_23_9 u_2_23_10 u_2_24_1 u_2_24_2 u_2_24_3 u_2_24_4 u_2_24_5 u_2_24_6 u_2_24_7 u_2_24_8 u_2_24_9 u_2_24_10
 u_2_25_1 u_2_25_2 u_2_25_3 u_2_25_4 u_2_25_5 u_2_25_6 u_2_25_7 u_2_25_8 u_2_25_9 u_2_25_10 u_2_26_1 u_2_26_2
 u_2_26_3 u_2_26_4 u_2_26_5 u_2_26_6 u_2_26_7 u_2_26_8 u_2_26_9 u_2_26_10 u_2_27_1 u_2_27_2 u_2_27_3 u_2_27_4
 u_2_27_5 u_2_27_6 u_2_27_7 u_2_27_8 u_2_27_9 u_2_27_10 u_2_28_1 u_2_28_2 u_2_28_3 u_2_28_4 u_2_28_5 u_2_28_6
 u_2_28_7 u_2_28_8 u_2_28_9 u_2_28_10 u_2_29_1 u_2_29_2 u_2_29_3 u_2_29_4 u_2_29_5 u_2_29_6 u_2_29_7 u_2_29_8
 u_2_29_9 u_2_29_10 u_2_30_1 u_2_30_2 u_2_30_3 u_2_30_4 u_2_30_5 u_2_30_6 u_2_30_7 u_2_30_8 u_2_30_9 u_2_30_10
 u_2_31_1 u_2_31_2 u_2_31_3 u_2_31_4 u_2_31_5 u_2_31_6 u_2_31_7 u_2_31_8 u_2_31_9 u_2_31_10 u_2_32_1 u_2_32_2
 u_2_32_3 u_2_32_4 u_2_32_5 u_2_32_6 u_2_32_7 u_2_32_8 u_2_32_9 u_2_32_10 u_2_33_1 u_2_33_2 u_2_33_3 u_2_33_4
 u_2_33_5 u_2_33_6 u_2_33_7 u_2_33_8 u_2_33_9 u_2_33_10 u_2_34_1 u_2_34_2 u_2_34_3 u_2_34_4 u_2_34_5 u_2_34_6
 u_2_34_7 u_2_34_8 u_2_34_9 u_2_34_10 u_2_35_1 u_2_35_2 u_2_35_3 u_2_35_4 u_2_35_5 u_2_35_6 u_2_35_7 u_2_35_8
 u_2_35_9 u_2_35_10 u_2_36_1 u_2_36_2 u_2_36_3 u_2_36_4 u_2_36_5 u_2_36_6 u_2_36_7 u_2_36_8 u_2_36_9 u_2_36_10
 u_2_37_1 u_2_37_2 u_2_37_3 u_2_37_4 u_2_37_5 u_2_37_6 u_2_37_7 u_2_37_8 u_2_37_9 u_2_37_10 u_2_38_1 u_2_38_2
 u_2_38_3 u_2_38_4 u_2_38_5 u_2_38_6 u_2_38_7 u_2_38_8 u_2_38_9 u_2_38_10 u_2_39_1 u_2_39_2 u_2_39_3 u_2_39_4
 u_2_39_5 u_2_39_6 u_2_39_7 u_2_39_8 u_2_39_9 u_2_39_10 u_2_40_1 u_2_40_2 u_2_40_3 u_2_40_4 u_2_40_5 u_2_40_6
 u_2_40_7 u_2_40_8 u_2_40_9 u_2_40_10
End
